&CONTROL
  calculation = 'scf'
  outdir = './out/'
  prefix = 'aiida'
  pseudo_dir = './pseudo/'
  restart_mode = 'from_scratch'
!  verbosity = 'high'
/
&SYSTEM
  degauss =   2.0000000000d-02
  ecutrho =   3.6000000000d+02
  ecutwfc =   4.5000000000d+01
  ibrav = 0
  nat = 24
  ntyp = 2
  occupations = 'smearing'
  smearing = 'cold'
/
&ELECTRONS
  conv_thr =   2.4000000000d-07
  electron_maxstep = 100
  mixing_beta =   3.5000000000d-01
/
ATOMIC_SPECIES
Na     22.98977 Na_pbe_v1.uspp.F.UPF
O      15.9994 O_pbe_v1.2.uspp.F.UPF
ATOMIC_POSITIONS angstrom
Na           1.9322719000       1.4150780415      -0.0687968591 
Na           1.9028749520       1.3646788772       3.9606383792 
Na           0.0615745556       4.1265495735      -1.8970689407 
Na           0.0547459445       4.0741451222       1.9404951319 
Na           5.9013866762       1.3625633938      -0.0532600372 
Na           5.8097321142       1.4273504418       3.8432109475 
Na           3.8252343560       4.1644915821      -1.9283618312 
Na           3.9022460311       4.1990922861       1.9047497638 
Na           0.0633754269       1.4213910181       1.9268052405 
Na          -0.0406866983       1.4415472603       5.8186149595 
Na          -1.9075528397       4.0766587405       0.0413757515 
Na          -1.9867880477       4.0858355493       3.9481537389 
Na           3.9642281370       1.3384747161       1.9339379914 
Na           3.8274609556       1.4023894956       5.8101456205 
Na           1.9211319347       4.0907332705       0.0631035680 
Na           1.9920272491       4.0737241232       3.8632857963 
O            0.0034760597       0.0148962904       7.7128760066 
O            3.8702349868       5.4356389276       0.0178311311 
O            5.8828226488       2.6973088233       5.8831312962 
O            5.7744033043       2.7437636937       1.9091245755 
O            0.0217329572       5.4368397380       3.9215782356 
O           -0.0575519042       5.4736048189      -0.0425433128 
O            1.9424959269       2.7387954368       5.7653250348 
O            1.8729956540       2.7286287403       1.9369700639 
K_POINTS automatic
10 12 10 0 0 0
CELL_PARAMETERS angstrom
      7.7914000000       0.0000000000       0.0000000000
     -3.8957000000       5.5093517749      -3.8957000000
      0.0000000000       0.0000000000       7.7914000000
