&CONTROL
  calculation = 'scf'
  etot_conv_thr =   1.2700000000d-03
  forc_conv_thr =   1.0000000000d-04
  max_seconds =   4.1040000000d+04
  outdir = './out/'
  prefix = 'W127'
  pseudo_dir = '.'
  tprnfor = .true.
  tstress = .true.
  verbosity = 'high'
/
&SYSTEM
  degauss =   1.5000000000d-02
  ecutrho = 320
  ecutwfc = 40
  ibrav = 0
  nat = 127
  nosym = .false.
  ntyp = 1
  occupations = 'smearing'
  smearing = 'cold'
  input_dft = 'XC-000I-000I-116L-133L-000I-000I' ! pbesol
/
&ELECTRONS
  conv_thr =   2.5400000000d-08
  electron_maxstep = 500
  mixing_beta =   0.3
/
ATOMIC_SPECIES
W      183.84 W.nc.pbesol.z_14.oncvpsp4.spms.v1.upf
ATOMIC_POSITIONS angstrom
W            1.5716996900       1.6079891100       1.5477690100
W            0.0701275300      -0.0495519200       3.1853377100
W            1.5806225300       1.5599767100       4.7568648500
W           -0.0529789900      -0.0184025700       6.3417686100
W            1.5128140600       1.5432413100       7.9760105800
W            0.0135021600      -0.0460748100       9.5882896700
W            1.5580514200       1.5960700000      11.1570299300
W           -0.0142091800       3.2809893100       0.0207807400
W            1.5697878700       4.7378272600       1.6223366600
W            0.0214239400       3.1424215000       3.2095452200
W            1.5925058000       4.7228593000       4.7894129400
W            0.0268734900       3.1632789700       6.3798977600
W            1.5128788800       4.7708242000       7.9487748400
W            0.0425796900       3.1585602800       9.5410060400
W            1.6091433300       4.7551132900      11.1494656200
W           -0.0542422800       6.3711233800      -0.0022825100
W            1.5447673100       7.9067847300       1.5873829700
W            0.0225112900       6.2893759300       3.1641505800
W            1.5912525800       7.8892120900       4.7034172800
W            0.0011912400       6.3704190800       6.3346177100
W            1.5841032200       7.9175555600       7.9670090100
W            0.0118911100       6.3064481000       9.4902055400
W            1.5136945900       7.9824522900      11.0800765100
W           -0.0617188600       9.5493968600       0.0277307500
W            1.5999498500      11.1111837000       1.5671944700
W           -0.0310238700       9.4876790900       3.1506231000
W            1.6189879100      11.0794894700       4.7860305600
W            0.0311683900       9.5145402200       6.3268302800
W            1.6040993500      11.0935296400       7.9233182000
W           -0.0348999200       9.5382960000       9.5097304400
W            1.5664594300      11.0815790400      11.1734885300
W            3.1301506500       0.0294120200       0.0132722300
W            4.7902133600       1.5695864700       1.5851664500
W            3.1971737000       0.0094794900       3.1418598100
W            4.7665144000       1.5727098800       4.7451249800
W            3.1436294800      -0.0202969600       6.3082066200
W            4.7519205200       1.5839513000       7.9097563500
W            3.2241683100      -0.0090141500       9.5102168600
W            4.7658600600       1.5775113000      11.1122665000
W            3.2035469600       3.1949389300       0.0052511300
W            4.7762897200       4.7401120000       1.5605368200
W            3.1475669600       3.1660886900       3.1580873300
W            4.7306873100       4.7648460100       4.6974186800
W            3.1576394100       3.1487298500       6.3887722200
W            4.7535391800       4.8145020100       7.9096751400
W            3.1567785900       3.1547436500       9.5295671800
W            4.7747714600       4.7365940900      11.0415752800
W            3.1816514300       6.3412831200       0.0084026000
W            4.7580426700       7.9466833500       1.5608458400
W            3.1954562800       6.3329276100       3.1355278000
W            4.7136044200       7.8804993100       4.7458031400
W            3.1155273700       6.3421163600       6.3220337000
W            4.7457666400       7.9012433400       7.9695004000
W            3.1455004100       6.3199190800       9.5288719500
W            4.7266247400       7.9334849100      11.0869233200
W            3.1652184200       9.4957265300       0.0089542000
W            4.7848765600      11.0904563900       1.5437202900
W            3.1383838600       9.4858366900       3.0989686900
W            4.7399778300      11.1130039100       4.8326999900
W            3.1397461600       9.5125667900       6.3544066300
W            4.7891417900      11.1002884600       7.9071016100
W            3.1881850200       9.5854983800       9.5331827100
W            4.8294363700      11.0982183300      11.1593293400
W            6.3613004700      -0.0174498800       0.0732140700
W            7.9857723700       1.5851134500       1.6354911800
W            6.3971344000       0.0596967600       3.1304258900
W            7.9299401600       1.6061391800       4.7646594000
W            6.2665361500       0.0245380000       6.3395000600
W            7.9208558800       1.5897905500       7.8794274700
W            6.3847263100       0.0334576600       9.5034378400
W            7.9288677400       1.5403329800      11.0540640300
W            6.4373433200       3.1436643100      -0.0503172100
W            7.9048291600       4.8253812500       1.5560316000
W            6.3847802700       3.1917361300       3.1204673300
W            7.9356195800       4.8085476500       4.6641555600
W            6.3297646600       3.1934336000       6.2707414400
W            7.9109683600       4.7465234000       7.9023619200
W            6.3489623100       3.1980583700       9.4573845300
W            7.9572008500       4.7434083700      11.0781086700
W            6.3397813900       6.3403620600      -0.0592189900
W            7.9400585400       7.9345426300       1.5664603700
W            6.2925159700       6.4074786900       3.1854116200
W            7.9062686600       7.9926889700       4.7473302100
W            6.3014268000       6.3283794200       6.3146041800
W            7.9272074100       7.9218123100       7.9269288000
W            6.3763435300       6.3200328500       9.4685777500
W            7.9121666600       7.9141374900      11.1143303900
W            6.3543748900       9.4777410300      -0.0345420300
W            7.9497388000      11.0625347400       1.6196037000
W            6.2855248000       9.5371446500       3.1552649300
W            7.8841739400      11.1117424500       4.8022393200
W            6.3340425700       9.4919444500       6.3579044300
W            7.9086758400      11.1264485800       7.9011073500
W            6.3357366100       9.5344204500       9.5109354500
W            7.9544872200      11.1368151200      11.1183994400
W            9.5475026900      -0.0252133400       0.1086692600
W           11.2076190600       1.5576728400       1.6071159900
W            9.5415777500      -0.0319766600       3.2407883100
W           11.1230921500       1.5654740700       4.7776213300
W            9.4573035000       0.0329700200       6.3611521700
W           11.0925198400       1.6020506900       7.9211366300
W            9.5524201200      -0.0061085200       9.5095716400
W           11.1024902400       1.5139743800      11.1563882400
W            9.5513756600       3.1439664400       0.0223324400
W           11.0434525800       4.7217928000       1.5876407700
W            9.5303958700       3.1953865100       3.1313484600
W           11.0797963800       4.7549689000       4.7630438900
W            9.5224670000       3.1538988400       6.2958903600
W           11.0881415400       4.7802160200       7.8595462800
W            9.5194015900       3.1733028200       9.4940780000
W           11.1193183700       4.7726329700      11.1095099800
W            9.4991344700       6.3512248100      -0.0181293800
W           11.0739898700       7.9107651400       1.6569993100
W            9.5018688100       6.3509629300       3.2034076100
W           11.0993190900       7.9228106700       4.7299680800
W            9.4479749800       6.4158763600       6.3685162500
W           11.0670717300       7.8996461100       7.8838531500
W            9.5205936300       6.2987819000       9.4695797200
W           11.1098795100       7.9145562500      11.0359502000
W            9.5371460700       9.4987442600       0.0154868100
W           11.1222918000      11.1039375300       1.6630292600
W            9.4872664000       9.5448982700       3.1811760100
W           11.0958784000      11.0569034200       4.7905897400
W            9.5111975300       9.5177568400       6.3331477800
W           11.1057597800      11.1228073400       7.9445603600
W            9.5887814800       9.5354844500       9.5005745700
W           11.1119331200      11.1210996700      11.1225199100
K_POINTS automatic
4 4 4 0 0 0
CELL_PARAMETERS angstrom
     12.6838684328       0.0000179253      -0.0000168926
      0.0000179252      12.6840191457       0.0000646521
     -0.0000168924       0.0000646516      12.6842092614
