&control
prefix = 'hse_1'
calculation = 'scf'
restart_mode = 'from_scratch'
wf_collect = .false.
disk_io = 'none'
tstress = .false.
tprnfor = .true.
outdir = './'
wfcdir = './'
pseudo_dir = './'
/
&system
ibrav = 0
nat = 288
ntyp = 3
occupations='smearing'
smearing='fd'
degauss=0.02
ecutwfc = 80.0
ecutfock = 90.0
!input_dft = 'hse'
/
&electrons
conv_thr=1.0d-6
adaptive_thr = .true.
mixing_mode = 'local-TF'
mixing_beta = 0.7
mixing_ndim = 8
diagonalization = 'david'
diago_david_ndim = 4
diago_full_acc = .true.
electron_maxstep=300
scf_must_converge=.false.
/
ATOMIC_SPECIES
Pt   195.084  Pt.pbe-mt_fhi.UPF
O    15.999   O.pbe-mt_fhi.UPF
H    2.01410178   H.pbe-mt_fhi.UPF
ATOMIC_POSITIONS bohr
Pt       4.264172426   2.054815432  10.569566807
Pt       9.354535304   2.079143536  10.678597632
Pt      14.366913767   2.031193427  10.830293479
Pt      19.426631409   2.053667489  10.770825798
Pt       1.737282602   6.403645687  10.906456968
Pt       6.815038709   6.487887756  10.693835760
Pt      11.882285976   6.448824555  11.051510492
Pt      16.948399574   6.453760717  11.138640738
Pt       4.215827580  10.812672786  11.112376147
Pt       9.306436309  10.873986824  11.047845318
Pt      14.353353978  10.892907131  10.963970019
Pt      19.433831026  10.840403853  11.156639205
Pt       1.678582474  15.191362172  10.906750508
Pt       6.756040292  15.184578470  11.031670026
Pt      11.790555393  15.247168853  10.855612126
Pt      16.880321290  15.214447313  11.005785329
Pt       1.570690876   3.496504130  15.085720101
Pt       6.636505104   3.534077339  14.888210740
Pt      11.740863466   3.538851502  15.212068538
Pt      16.801560857   3.515708659  15.256741335
Pt       4.156365755   7.897093792  15.262369212
Pt       9.200042200   7.920207147  15.282924689
Pt      14.291966362   7.944695368  15.358620311
Pt      19.384767877   7.908212584  15.412298938
Pt       1.623537400  12.326699657  15.403370978
Pt       6.690486318  12.342197803  15.374072090
Pt      11.747133974  12.342759040  15.328855140
Pt      16.809538620  12.314269828  15.385215386
Pt       4.120603759  16.723435806  15.154396830
Pt       9.219910974  16.761923910  15.187432394
Pt      14.264606535  16.714678761  15.251783218
Pt      19.332429826  16.687641710  15.203867717
Pt       1.544594613   0.609463653  19.445384974
Pt       6.610467868   0.631377173  19.419047840
Pt      11.683870137   0.617042152  19.507575652
Pt      16.757894542   0.598186735  19.538114170
Pt       4.079276381   4.978428392  19.428978610
Pt       9.123915312   4.980999445  19.456433196
Pt      14.216775752   4.989983617  19.572187596
Pt      19.295809729   4.980979159  19.578878387
Pt       1.569260570   9.385503476  19.641315056
Pt       6.618251444   9.392653283  19.571312589
Pt      11.678963700   9.392062048  19.601811660
Pt      16.757746965   9.386763043  19.658619789
Pt       4.095860517  13.811765326  19.601946542
Pt       9.160052081  13.815790459  19.593509000
Pt      14.218987039  13.791597170  19.607049241
Pt      19.292426005  13.789975600  19.628647685
Pt       4.028103345   2.081029735  23.741051711
Pt       9.093706226   2.072350601  23.767733249
Pt      14.172907185   2.061810958  23.823858160
Pt      19.243573399   2.064253178  23.815173573
Pt       1.506646502   6.463970719  23.874371534
Pt       6.561353193   6.464631461  23.789045931
Pt      11.633365333   6.463193441  23.827936682
Pt      16.711914813   6.459545454  23.904909320
Pt       4.045975057  10.865493198  23.893054688
Pt       9.100496935  10.865128362  23.875125963
Pt      14.170176963  10.861343180  23.916215131
Pt      19.238669759  10.846060228  23.934559214
Pt       1.502233194  15.263529573  23.836773929
Pt       6.576704572  15.264444261  23.843189014
Pt      11.642293224  15.258194988  23.869647585
Pt      16.709805860  15.241291769  23.889123991
Pt       1.450483292   3.551293900  28.110849564
Pt       6.518777376   3.542992970  28.047681088
Pt      11.580095166   3.522449441  28.069995698
Pt      16.646139692   3.526767428  28.110935196
Pt       3.998277215   7.960071258  28.171347414
Pt       9.050882477   7.931401752  28.111024692
Pt      14.131363360   7.940472221  28.175828349
Pt      19.203986731   7.941575138  28.250654488
Pt       1.463264071  12.359458787  28.131106410
Pt       6.539561202  12.336764652  28.191344580
Pt      11.569746532  12.330322601  28.174524565
Pt      16.658264796  12.315182924  28.224965124
Pt       3.996192836  16.745207813  28.075488368
Pt       9.061192876  16.711963733  28.143251196
Pt      14.118942814  16.711670978  28.162955363
Pt      19.195737879  16.729365864  28.140518914
Pt       1.367805864   0.650973159  32.437436791
Pt       6.478812136   0.651611525  32.429365666
Pt      11.533147945   0.616207451  32.528800729
Pt      16.598818066   0.604975646  32.472251953
Pt       3.987610455   5.029700672  32.403874479
Pt       9.029141076   5.027061988  32.393115813
Pt      14.024407866   5.026149654  32.399877513
Pt      19.124510501   5.012324764  32.440729342
Pt       1.407362654   9.463417458  32.493347185
Pt       6.454655597   9.453696019  32.560026025
Pt      11.519538938   9.432082739  32.475999841
Pt      16.607121910   9.401018032  32.667387332
Pt       3.942010985  13.888138774  32.424184547
Pt       8.981950336  13.809854467  32.629321225
Pt      14.066783660  13.769319750  32.449894214
Pt      19.123304449  13.805763878  32.476871424
O        5.635384166  12.017161105  -0.694973014
H        6.817832151  13.478677764  -0.817526489
H        6.283444366  11.187304910   0.939408286
O        4.061659329   4.019523180  40.975092968
H        4.253732247   5.988551902  40.630634312
H        2.244369726   3.574441146  40.443336412
O       17.568725007   2.452172688  44.579688018
H       17.542219490   1.176647797  43.218668234
H       18.184937160   3.994665624  43.655476584
O        7.017230595   4.038116798  37.331122112
H        6.162216082   4.624010677  35.714605115
H        5.696623521   3.944210637  38.745256902
O       14.504519202  15.130086444   1.378898004
H       14.419450406  12.864760588   2.193175757
H       13.243957195  16.234514991   2.298590977
O       14.576210600   3.352033430   5.208501206
H       16.195073381   2.507327137   5.995919398
H       14.191817499   2.344968370   3.657023911
O       13.988185727  11.040079622   3.135457653
H       12.843023906  11.485425988   4.648497417
H       15.407253840   9.791324610   3.467179723
O        8.819168394  15.399347395   0.852306942
H        9.024695291  16.695280893  -0.519908570
H       10.157656712  14.062950332   0.577462199
O        0.981114839  16.105503746  -0.337248025
H        2.819293482  15.980484315  -1.301905682
H        1.200105937  17.964351601   0.273281530
O        1.221928606  11.752648928  40.767066527
H        2.624545937  12.322677521  41.890255711
H        1.979252672  10.135514402  40.164392940
O        4.721124171   8.413556975  39.734769897
H        5.995219994   8.309903605  38.311013333
H        5.471982232   9.802459443  40.851040783
O        1.899048643   5.456277432  37.188467819
H        2.478326012   6.506740092  35.709493365
H        0.027227406   5.237404772  36.922826279
O       -0.088937777   4.779877587   4.339335957
H       -1.283893884   3.411465332   3.747358875
H        1.405856655   4.014631507   3.288322441
O        4.718130152   5.546854125   5.062427437
H        4.039486726   6.190622340   3.353737407
H        3.475713042   6.801903390   6.070483690
O        8.620015959   8.450990337  37.151869114
H        9.514995982  10.106057255  36.958149055
H        8.993764365   7.478692134  35.521132997
O       18.084033534  11.239433008   0.644644594
H       19.243276548  11.569329136  -0.874935979
H       19.460361177  11.648619999   1.874987581
O        9.787962017  12.651118140  38.577824115
H       10.580451479  14.324583775  39.314881300
H        7.894300091  12.884665994  38.188227960
O       18.426508431  18.769791941   6.745270889
H       17.473940406  17.257057426   7.380653294
H       18.893604440  17.138617480   4.615107947
O        8.419739500  17.056048058  37.350365911
H        7.641128177  18.718273612  36.776112766
H        9.742198160  16.809104309  35.984090321
O        5.551979794  12.035174092   6.229086337
H        6.234086438  11.215248136   4.624034769
H        6.183810257  10.917362573   7.637114645
O       19.944023864   2.450213727  40.104702841
H       18.175120754   3.196309358  40.125725576
H       19.865537190   0.949278348  39.017373209
O        3.184965157   1.585264725   6.591970157
H        1.353285256   2.089548303   6.694719525
H        4.047569116   3.231830755   5.733969355
O        1.738425576   8.703221208   6.348926203
H        1.994724527   9.584545936   8.030569275
H        2.142589723  10.078016628   5.056252299
O       -0.338276691  14.935644030  37.369005145
H        1.147646262  16.085661635  36.985492095
H       -1.597449028  15.585576715  36.094561662
O       17.579325688   4.382298224  36.462498984
H       16.808418670   2.580219974  36.541421337
H       16.116846767   5.427157095  35.824011153
O       18.086353669  11.302120004   5.895803758
H       18.615201025  11.688010204   7.763484723
H       19.619462075  11.901343934   4.948670646
O       14.556113628   8.457596955  42.161906710
H       15.611649777   8.055568138  43.741592225
H       14.620965252   6.736136135  41.217660390
O        4.922192588  16.420919518  40.774381475
H        5.017501342  14.917728669  39.526675820
H        4.280489018  17.684264157  39.463975379
O       10.127845789   2.992449606   6.764568741
H       10.645239298   1.146659894   6.015846072
H       11.948679947   3.625930159   6.578082190
O       18.379372191   8.499739205  38.343694610
H       16.558159253   8.050799077  37.778525610
H       17.887138018  10.277048648  38.983747282
O       13.698483610  13.707722903  36.312887629
H       11.892616279  13.189764431  36.652816616
H       14.864230312  12.649096208  37.861126595
O        7.585319126   2.269494380   2.930566898
H        8.366099845   2.946733603   4.539922533
H        8.669858953   0.792708076   2.545705507
O        1.680747097  14.711774582   6.913576890
H        3.152046846  13.488196123   6.647368625
H        2.426570275  16.418424137   6.433537225
O       12.891619793   7.717798550   6.698263354
H       14.654458448   6.918225164   6.811703790
H       13.133739191   9.364599797   7.718718298
O        4.473647538  15.794749810   2.768628939
H        5.560893391  16.235951582   4.380954780
H        5.934515128  15.518793973   1.600823572
O       15.243743011   4.076884634  40.639238161
H       14.347468045   3.255762392  42.201826106
H       13.975386710   3.687467550  39.278597005
O       16.513602601   7.197261013   2.919162865
H       18.351268034   6.690578491   3.202602543
H       15.595521217   5.664902947   3.659078998
O       10.468843082   6.429193411  40.926080430
H        9.804457283   7.267384541  39.318294575
H       10.074321118   4.579364049  40.726420153
O       17.204638846  16.186378169  41.166317794
H       16.013751588  15.930628368  42.731995561
H       19.240086994  16.033302393  41.707160973
O       11.822273816   3.667176200  37.350783332
H        9.919702924   3.931557298  37.269505880
H       12.201828346   2.642730984  35.763911260
O        8.769900495   1.917721588  41.326619189
H        8.862649021   0.804952852  39.711176697
H        6.959039481   2.333982119  41.589205073
O       10.975276081  11.395555104  42.804618763
H       10.246620959  11.497528610  41.002894471
H       12.473856329  10.172339402  42.657572183
O        7.323833544  16.351045795   6.222088656
H        6.909947364  14.520836980   6.697107735
H        6.796653822  17.466314983   7.672254516
O        2.599861566   2.335954356   1.697911378
H        3.554829819   3.199195133   0.240216994
H        3.703106019   0.874850941   2.349940298
O       11.675592421  16.856869269   4.687162956
H       13.346290684  16.394836736   5.557353070
H       10.681313987  15.266316107   5.058730864
O        7.959299213  10.099615347   2.786670546
H        9.387357412  10.607494782   1.436855137
H        7.727857566   8.158805460   2.248651550
O       10.627663196  12.411311740   5.818310442
H       10.370085075  12.292282737   7.740615053
H        9.455312602  11.141997572   4.954678665
O       15.364854223  14.908608563   6.563481202
H       14.208306906  14.052694906   7.860066712
H       16.456253369  13.387905497   5.922616493
O        7.098956563   6.209940836   0.680281734
H        8.535060761   6.524069438  -0.680618171
H        7.447861878   4.458669918   1.533445009
O        5.274074044  13.051639021  37.582687861
H        3.988006111  11.639621359  37.284092347
H        5.523273639  13.840917509  35.824828110
O       15.998415885  12.084744983  39.684559388
H       16.664920590  13.786291502  40.482861002
H       15.279817307  10.663157961  40.884112269
O        1.859783980  11.937751827   2.947595786
H        2.551952774  10.379392670   1.948120511
H        2.992648296  13.536215837   2.805685532
O       18.725691173  15.578519858   3.409713008
H       20.046774181  15.587872699   1.925101047
H       16.894457121  15.529982546   2.624325660
O       21.804395211  10.570463018  36.311436128
H       20.947973805  12.323084626  36.535484170
H       20.382777176   9.366288205  37.045767299
O        3.037933044   7.852916367   1.347704978
H        4.756231301   7.228016347   0.588930883
H        1.563669210   7.139866953   0.250095338
O       17.425827921   6.810118675   7.284912346
H       17.912650068   8.604598963   6.716202306
H       18.893412662   5.734214176   6.541844552
O       12.661430273   2.297971829   0.875247264
H       11.132730651   1.809656137  -0.118240488
H       12.067213569   4.000808888   1.680964444
O       15.500076499  17.890109482  37.313083326
H       16.398705236  17.223723185  38.965987600
H       14.682913904  16.294293301  36.565259955
O        8.105468662   7.747079383   6.951958425
H        9.870679352   7.115324394   6.859940674
H        6.905908900   6.611222016   5.861318936
O       11.405669120   6.459583812   2.471603263
H       12.150164649   7.346181852   0.996390660
H       12.161602775   7.248011707   4.023713533
O       12.046633037  16.193657532  40.493480281
H       13.113795197  17.271272596  39.367741641
H       13.096777887  15.565059620  41.955283456
O       13.789653143   8.251288091  37.498613298
H       13.617417233   9.014189787  35.735802233
H       12.910226066   6.565247669  37.278869829
O       -0.776726297   6.616573640  42.399741487
H       -1.067301628   7.040653268  40.522414704
H       -1.451556025   8.272645921  43.132066224
O        3.000013031   0.858921034  37.043692141
H        2.553949157   2.796895806  36.878988718
H        4.283080032   0.523560881  35.638023934
K_POINTS automatic
2 2 1 1 1 1
CELL_PARAMETERS bohr
  20.273260268   0.000000000   0.000000000
   0.000000000  17.567189642   0.000000000
   0.000000000   0.000000000  43.210844801
