&control
calculation='scf',
restart_mode='from_scratch',
pseudo_dir = './',
outdir='./',
prefix = 'scf_',
disk_io = 'none'
/
&system
ibrav=0, celldm(1)=1, ecutwfc=30, ecutrho = 400,
occupations = 'smearing', smearing = 'gauss', degauss = 0.01
nat=144 ntyp=2
/
&electrons
conv_thr =  1.0d-11,
mixing_beta = 0.7,
electron_maxstep = 100
/
ATOMIC_SPECIES
Si 0.0 si_lda_v1.uspp.F.UPF
O  0.0 o_lda_v1.2.uspp.F.UPF
CELL_PARAMETERS
       25.63791433        0.00000000        0.00000000
        0.00000000       25.63791433        0.00000000
        0.00000000        0.00000000       25.63791433
ATOMIC_POSITIONS (crystal)
Si          0.66160000         0.58840000         0.12500000
Si          0.16160000         0.08840000         0.62500000
Si          0.12500000         0.66160000         0.58840000
Si          0.62500000         0.16160000         0.08840000
Si          0.58840000         0.12500000         0.66160000
Si          0.08840000         0.62500000         0.16160000
Si          0.16160000         0.58840000         0.37500000
Si          0.66160000         0.08840000         0.87500000
Si          0.62500000         0.66160000         0.91160000
Si          0.12500000         0.16160000         0.41160000
Si          0.08840000         0.12500000         0.83840000
Si          0.58840000         0.62500000         0.33840000
Si          0.83840000         0.08840000         0.12500000
Si          0.33840000         0.58840000         0.62500000
Si          0.37500000         0.16160000         0.58840000
Si          0.87500000         0.66160000         0.08840000
Si          0.91160000         0.62500000         0.66160000
Si          0.41160000         0.12500000         0.16160000
Si          0.33840000         0.08840000         0.37500000
Si          0.83840000         0.58840000         0.87500000
Si          0.87500000         0.16160000         0.91160000
Si          0.37500000         0.66160000         0.41160000
Si          0.41160000         0.62500000         0.83840000
Si          0.91160000         0.12500000         0.33840000
Si          0.83840000         0.91160000         0.37500000
Si          0.33840000         0.41160000         0.87500000
Si          0.91160000         0.37500000         0.83840000
Si          0.41160000         0.87500000         0.33840000
Si          0.37500000         0.83840000         0.91160000
Si          0.87500000         0.33840000         0.41160000
Si          0.83840000         0.41160000         0.62500000
Si          0.33840000         0.91160000         0.12500000
Si          0.91160000         0.87500000         0.16160000
Si          0.41160000         0.37500000         0.66160000
Si          0.37500000         0.33840000         0.08840000
Si          0.87500000         0.83840000         0.58840000
Si          0.16160000         0.91160000         0.87500000
Si          0.66160000         0.41160000         0.37500000
Si          0.62500000         0.83840000         0.41160000
Si          0.12500000         0.33840000         0.91160000
Si          0.08840000         0.37500000         0.33840000
Si          0.58840000         0.87500000         0.83840000
Si          0.66160000         0.91160000         0.62500000
Si          0.16160000         0.41160000         0.12500000
Si          0.12500000         0.83840000         0.08840000
Si          0.62500000         0.33840000         0.58840000
Si          0.58840000         0.37500000         0.16160000
Si          0.08840000         0.87500000         0.66160000
O          0.64170000         0.47160000         0.11800000
O          0.14170000         0.97160000         0.61800000
O          0.11800000         0.64170000         0.47160000
O          0.61800000         0.14170000         0.97160000
O          0.47160000         0.11800000         0.64170000
O          0.97160000         0.61800000         0.14170000
O          0.14170000         0.47160000         0.38200000
O          0.64170000         0.97160000         0.88200000
O          0.61800000         0.64170000         0.02840000
O          0.11800000         0.14170000         0.52840000
O          0.97160000         0.11800000         0.85830000
O          0.47160000         0.61800000         0.35830000
O          0.85830000         0.97160000         0.11800000
O          0.35830000         0.47160000         0.61800000
O          0.38200000         0.14170000         0.47160000
O          0.88200000         0.64170000         0.97160000
O          0.02840000         0.61800000         0.64170000
O          0.52840000         0.11800000         0.14170000
O          0.35830000         0.97160000         0.38200000
O          0.85830000         0.47160000         0.88200000
O          0.88200000         0.14170000         0.02840000
O          0.38200000         0.64170000         0.52840000
O          0.52840000         0.61800000         0.85830000
O          0.02840000         0.11800000         0.35830000
O          0.72160000         0.89170000         0.36800000
O          0.22160000         0.39170000         0.86800000
O          0.89170000         0.36800000         0.72160000
O          0.39170000         0.86800000         0.22160000
O          0.36800000         0.72160000         0.89170000
O          0.86800000         0.22160000         0.39170000
O          0.72160000         0.39170000         0.63200000
O          0.22160000         0.89170000         0.13200000
O          0.89170000         0.86800000         0.27840000
O          0.39170000         0.36800000         0.77840000
O          0.36800000         0.22160000         0.10830000
O          0.86800000         0.72160000         0.60830000
O          0.22160000         0.10830000         0.36800000
O          0.72160000         0.60830000         0.86800000
O          0.39170000         0.63200000         0.72160000
O          0.89170000         0.13200000         0.22160000
O          0.86800000         0.27840000         0.89170000
O          0.36800000         0.77840000         0.39170000
O          0.22160000         0.60830000         0.63200000
O          0.72160000         0.10830000         0.13200000
O          0.39170000         0.13200000         0.27840000
O          0.89170000         0.63200000         0.77840000
O          0.86800000         0.77840000         0.10830000
O          0.36800000         0.27840000         0.60830000
O          0.35830000         0.52840000         0.88200000
O          0.85830000         0.02840000         0.38200000
O          0.88200000         0.35830000         0.52840000
O          0.38200000         0.85830000         0.02840000
O          0.52840000         0.88200000         0.35830000
O          0.02840000         0.38200000         0.85830000
O          0.85830000         0.52840000         0.61800000
O          0.35830000         0.02840000         0.11800000
O          0.38200000         0.35830000         0.97160000
O          0.88200000         0.85830000         0.47160000
O          0.02840000         0.88200000         0.14170000
O          0.52840000         0.38200000         0.64170000
O          0.14170000         0.02840000         0.88200000
O          0.64170000         0.52840000         0.38200000
O          0.61800000         0.85830000         0.52840000
O          0.11800000         0.35830000         0.02840000
O          0.97160000         0.38200000         0.35830000
O          0.47160000         0.88200000         0.85830000
O          0.64170000         0.02840000         0.61800000
O          0.14170000         0.52840000         0.11800000
O          0.11800000         0.85830000         0.97160000
O          0.61800000         0.35830000         0.47160000
O          0.47160000         0.38200000         0.14170000
O          0.97160000         0.88200000         0.64170000
O          0.27840000         0.10830000         0.63200000
O          0.77840000         0.60830000         0.13200000
O          0.10830000         0.63200000         0.27840000
O          0.60830000         0.13200000         0.77840000
O          0.63200000         0.27840000         0.10830000
O          0.13200000         0.77840000         0.60830000
O          0.27840000         0.60830000         0.36800000
O          0.77840000         0.10830000         0.86800000
O          0.10830000         0.13200000         0.72160000
O          0.60830000         0.63200000         0.22160000
O          0.63200000         0.77840000         0.89170000
O          0.13200000         0.27840000         0.39170000
O          0.77840000         0.89170000         0.63200000
O          0.27840000         0.39170000         0.13200000
O          0.60830000         0.36800000         0.27840000
O          0.10830000         0.86800000         0.77840000
O          0.13200000         0.72160000         0.10830000
O          0.63200000         0.22160000         0.60830000
O          0.77840000         0.39170000         0.36800000
O          0.27840000         0.89170000         0.86800000
O          0.60830000         0.86800000         0.72160000
O          0.10830000         0.36800000         0.22160000
O          0.13200000         0.22160000         0.89170000
O          0.63200000         0.72160000         0.39170000
K_POINTS (automatic)
2 2 2  0 0 0
