&control
  calculation='scf'
  restart_mode='from_scratch'
  prefix='pwscf_'
  pseudo_dir = './'
  outdir='./'
  verbosity = 'low'
  disk_io = 'none'
/
&system
  nat=256, ntyp=4,
  ibrav=0, celldm(1)=1.88972687000
  ecutwfc = 40.0, ecutrho = 300.0,
  occupations = 'smearing', smearing = 'gauss', degauss = 0.05, nbnd = 720
/
&electrons
        conv_thr = 1.0e-11,
        mixing_beta = 0.5,
        electron_maxstep = 100
/

ATOMIC_SPECIES
La   138.91 la_lda_v1.uspp.F.UPF
Zr    91.22 zr_lda_v1.uspp.F.UPF
O     16.00 o_lda_v1.2.uspp.F.UPF
Li     6.94 li_lda_v1.uspp.F.UPF

CELL_PARAMETERS
  12.9827000000	   0.0000000000	   0.0000000000
   0.0000000000	  12.9827000000	   0.0000000000
   0.0000000000	   0.0000000000	  12.9827000000

ATOMIC_POSITIONS (angstrom)
La	   6.4913500000	   3.2456750000	  11.3598625000
La	   0.0000000000	   9.7370250000	   4.8685125000
La	   6.4913500000	   9.7370250000	   8.1141875000
La	   0.0000000000	   3.2456750000	   1.6228375000
La	   3.2456750000	  11.3598625000	   6.4913500000
La	   9.7370250000	   4.8685125000	   0.0000000000
La	   9.7370250000	   8.1141875000	   6.4913500000
La	   3.2456750000	   1.6228375000	   0.0000000000
La	  11.3598625000	   6.4913500000	   3.2456750000
La	   4.8685125000	   0.0000000000	   9.7370250000
La	   8.1141875000	   6.4913500000	   9.7370250000
La	   1.6228375000	   0.0000000000	   3.2456750000
La	   0.0000000000	   3.2456750000	   8.1141875000
La	   6.4913500000	   9.7370250000	   1.6228375000
La	   0.0000000000	   9.7370250000	  11.3598625000
La	   6.4913500000	   3.2456750000	   4.8685125000
La	   3.2456750000	   8.1141875000	   0.0000000000
La	   9.7370250000	   1.6228375000	   6.4913500000
La	   9.7370250000	  11.3598625000	   0.0000000000
La	   3.2456750000	   4.8685125000	   6.4913500000
La	   8.1141875000	   0.0000000000	   3.2456750000
La	   1.6228375000	   6.4913500000	   9.7370250000
La	  11.3598625000	   0.0000000000	   9.7370250000
La	   4.8685125000	   6.4913500000	   3.2456750000
Zr	   9.7370250000	   3.2456750000	   9.7370250000
Zr	   9.7370250000	   9.7370250000	   3.2456750000
Zr	   3.2456750000	   9.7370250000	   9.7370250000
Zr	   3.2456750000	   3.2456750000	   3.2456750000
Zr	   6.4913500000	   6.4913500000	   0.0000000000
Zr	   6.4913500000	   0.0000000000	   6.4913500000
Zr	   0.0000000000	   6.4913500000	   6.4913500000
Zr	   0.0000000000	   0.0000000000	   0.0000000000
Zr	   3.2456750000	   9.7370250000	   3.2456750000
Zr	   3.2456750000	   3.2456750000	   9.7370250000
Zr	   9.7370250000	   3.2456750000	   3.2456750000
Zr	   9.7370250000	   9.7370250000	   9.7370250000
Zr	   0.0000000000	   0.0000000000	   6.4913500000
Zr	   0.0000000000	   6.4913500000	   0.0000000000
Zr	   6.4913500000	   0.0000000000	   0.0000000000
Zr	   6.4913500000	   6.4913500000	   6.4913500000
O	   7.7883217300	   3.9441442600	   9.3263821990
O	  11.6857282700	   9.0385557400	   2.8350321990
O	   5.1943782700	  10.4354942600	  10.1476678010
O	   1.2969717300	   2.5472057400	   3.6563178010
O	   3.9441442600	   9.3263821990	   7.7883217300
O	   9.0385557400	   2.8350321990	  11.6857282700
O	  10.4354942600	  10.1476678010	   5.1943782700
O	   2.5472057400	   3.6563178010	   1.2969717300
O	   9.3263821990	   7.7883217300	   3.9441442600
O	   2.8350321990	  11.6857282700	   9.0385557400
O	  10.1476678010	   5.1943782700	  10.4354942600
O	   3.6563178010	   1.2969717300	   2.5472057400
O	  11.6857282700	   2.5472057400	  10.1476678010
O	   7.7883217300	  10.4354942600	   3.6563178010
O	   1.2969717300	   9.0385557400	   9.3263821990
O	   5.1943782700	   3.9441442600	   2.8350321990
O	   2.5472057400	  10.1476678010	  11.6857282700
O	  10.4354942600	   3.6563178010	   7.7883217300
O	   9.0385557400	   9.3263821990	   1.2969717300
O	   3.9441442600	   2.8350321990	   5.1943782700
O	  10.1476678010	  11.6857282700	   2.5472057400
O	   3.6563178010	   7.7883217300	  10.4354942600
O	   9.3263821990	   1.2969717300	   9.0385557400
O	   2.8350321990	   5.1943782700	   3.9441442600
O	   4.5426467300	   6.0807071990	   0.6984692600
O	   8.4400532700	  12.5720571990	   5.7928807400
O	   1.9487032700	   6.9019928010	   7.1898192600
O	  11.0339967300	   0.4106428010	  12.2842307400
O	   0.6984692600	   4.5426467300	   6.0807071990
O	   5.7928807400	   8.4400532700	  12.5720571990
O	   7.1898192600	   1.9487032700	   6.9019928010
O	  12.2842307400	  11.0339967300	   0.4106428010
O	   6.0807071990	   0.6984692600	   4.5426467300
O	  12.5720571990	   5.7928807400	   8.4400532700
O	   6.9019928010	   7.1898192600	   1.9487032700
O	   0.4106428010	  12.2842307400	  11.0339967300
O	   8.4400532700	   6.9019928010	  12.2842307400
O	   4.5426467300	   0.4106428010	   7.1898192600
O	  11.0339967300	   6.0807071990	   5.7928807400
O	   1.9487032700	  12.5720571990	   0.6984692600
O	  12.2842307400	   8.4400532700	   6.9019928010
O	   7.1898192600	   4.5426467300	   0.4106428010
O	   5.7928807400	  11.0339967300	   6.0807071990
O	   0.6984692600	   1.9487032700	  12.5720571990
O	   6.9019928010	  12.2842307400	   8.4400532700
O	   0.4106428010	   7.1898192600	   4.5426467300
O	   6.0807071990	   5.7928807400	  11.0339967300
O	  12.5720571990	   0.6984692600	   1.9487032700
O	   1.2969717300	  10.4354942600	   2.8350321990
O	   5.1943782700	   2.5472057400	   9.3263821990
O	  11.6857282700	   3.9441442600	   3.6563178010
O	   7.7883217300	   9.0385557400	  10.1476678010
O	  10.4354942600	   2.8350321990	   1.2969717300
O	   2.5472057400	   9.3263821990	   5.1943782700
O	   3.9441442600	   3.6563178010	  11.6857282700
O	   9.0385557400	  10.1476678010	   7.7883217300
O	   2.8350321990	   1.2969717300	  10.4354942600
O	   9.3263821990	   5.1943782700	   2.5472057400
O	   3.6563178010	  11.6857282700	   3.9441442600
O	  10.1476678010	   7.7883217300	   9.0385557400
O	   5.1943782700	   9.0385557400	   3.6563178010
O	   1.2969717300	   3.9441442600	  10.1476678010
O	   7.7883217300	   2.5472057400	   2.8350321990
O	  11.6857282700	  10.4354942600	   9.3263821990
O	   9.0385557400	   3.6563178010	   5.1943782700
O	   3.9441442600	  10.1476678010	   1.2969717300
O	   2.5472057400	   2.8350321990	   7.7883217300
O	  10.4354942600	   9.3263821990	  11.6857282700
O	   3.6563178010	   5.1943782700	   9.0385557400
O	  10.1476678010	   1.2969717300	   3.9441442600
O	   2.8350321990	   7.7883217300	   2.5472057400
O	   9.3263821990	  11.6857282700	  10.4354942600
O	  11.0339967300	  12.5720571990	   7.1898192600
O	   1.9487032700	   6.0807071990	  12.2842307400
O	   8.4400532700	   0.4106428010	   0.6984692600
O	   4.5426467300	   6.9019928010	   5.7928807400
O	   7.1898192600	  11.0339967300	  12.5720571990
O	  12.2842307400	   1.9487032700	   6.0807071990
O	   0.6984692600	   8.4400532700	   0.4106428010
O	   5.7928807400	   4.5426467300	   6.9019928010
O	  12.5720571990	   7.1898192600	  11.0339967300
O	   6.0807071990	  12.2842307400	   1.9487032700
O	   0.4106428010	   0.6984692600	   8.4400532700
O	   6.9019928010	   5.7928807400	   4.5426467300
O	   1.9487032700	   0.4106428010	   5.7928807400
O	  11.0339967300	   6.9019928010	   0.6984692600
O	   4.5426467300	  12.5720571990	  12.2842307400
O	   8.4400532700	   6.0807071990	   7.1898192600
O	   5.7928807400	   1.9487032700	   0.4106428010
O	   0.6984692600	  11.0339967300	   6.9019928010
O	  12.2842307400	   4.5426467300	  12.5720571990
O	   7.1898192600	   8.4400532700	   6.0807071990
O	   0.4106428010	   5.7928807400	   1.9487032700
O	   6.9019928010	   0.6984692600	  11.0339967300
O	  12.5720571990	  12.2842307400	   4.5426467300
O	   6.0807071990	   7.1898192600	   8.4400532700
Li	   6.4913500000	   3.2456750000	   1.6228375000
Li	   0.0000000000	   9.7370250000	   8.1141875000
Li	   6.4913500000	   9.7370250000	   4.8685125000
Li	   0.0000000000	   3.2456750000	  11.3598625000
Li	   3.2456750000	   1.6228375000	   6.4913500000
Li	   9.7370250000	   8.1141875000	   0.0000000000
Li	   9.7370250000	   4.8685125000	   6.4913500000
Li	   3.2456750000	  11.3598625000	   0.0000000000
Li	   1.6228375000	   6.4913500000	   3.2456750000
Li	   8.1141875000	   0.0000000000	   9.7370250000
Li	   4.8685125000	   6.4913500000	   9.7370250000
Li	  11.3598625000	   0.0000000000	   3.2456750000
Li	   0.0000000000	   3.2456750000	   4.8685125000
Li	   6.4913500000	   9.7370250000	  11.3598625000
Li	   0.0000000000	   9.7370250000	   1.6228375000
Li	   6.4913500000	   3.2456750000	   8.1141875000
Li	   3.2456750000	   4.8685125000	   0.0000000000
Li	   9.7370250000	  11.3598625000	   6.4913500000
Li	   9.7370250000	   1.6228375000	   0.0000000000
Li	   3.2456750000	   8.1141875000	   6.4913500000
Li	   4.8685125000	   0.0000000000	   3.2456750000
Li	  11.3598625000	   6.4913500000	   9.7370250000
Li	   1.6228375000	   0.0000000000	   9.7370250000
Li	   8.1141875000	   6.4913500000	   3.2456750000
Li	   2.2966396300	  12.2322999400	  10.9820659300
Li	   4.1947103700	   0.7504000600	   4.4907159300
Li	  10.6860603700	   5.7409499400	   8.4919840700
Li	   8.7879896300	   7.2417500600	   2.0006340700
Li	  12.2322999400	  10.9820659300	   2.2966396300
Li	   0.7504000600	   4.4907159300	   4.1947103700
Li	   5.7409499400	   8.4919840700	  10.6860603700
Li	   7.2417500600	   2.0006340700	   8.7879896300
Li	  10.9820659300	   2.2966396300	  12.2322999400
Li	   4.4907159300	   4.1947103700	   0.7504000600
Li	   8.4919840700	  10.6860603700	   5.7409499400
Li	   2.0006340700	   8.7879896300	   7.2417500600
Li	   4.1947103700	   7.2417500600	   8.4919840700
Li	   2.2966396300	   5.7409499400	   2.0006340700
Li	   8.7879896300	   0.7504000600	  10.9820659300
Li	  10.6860603700	  12.2322999400	   4.4907159300
Li	   7.2417500600	   8.4919840700	   4.1947103700
Li	   5.7409499400	   2.0006340700	   2.2966396300
Li	   0.7504000600	  10.9820659300	   8.7879896300
Li	  12.2322999400	   4.4907159300	  10.6860603700
Li	   8.4919840700	   4.1947103700	   7.2417500600
Li	   2.0006340700	   2.2966396300	   5.7409499400
Li	  10.9820659300	   8.7879896300	   0.7504000600
Li	   4.4907159300	  10.6860603700	  12.2322999400
Li	  12.0336646300	   7.7363909300	   8.9866249400
Li	   0.9490353700	   1.2450409300	  10.4874250600
Li	   7.4403853700	   5.2463090700	   2.4952749400
Li	   5.5423146300	  11.7376590700	   3.9960750600
Li	   8.9866249400	  12.0336646300	   7.7363909300
Li	  10.4874250600	   0.9490353700	   1.2450409300
Li	   2.4952749400	   7.4403853700	   5.2463090700
Li	   3.9960750600	   5.5423146300	  11.7376590700
Li	   7.7363909300	   8.9866249400	  12.0336646300
Li	   1.2450409300	  10.4874250600	   0.9490353700
Li	   5.2463090700	   2.4952749400	   7.4403853700
Li	  11.7376590700	   3.9960750600	   5.5423146300
Li	   0.9490353700	   5.2463090700	   3.9960750600
Li	  12.0336646300	  11.7376590700	   2.4952749400
Li	   5.5423146300	   7.7363909300	  10.4874250600
Li	   7.4403853700	   1.2450409300	   8.9866249400
Li	   3.9960750600	   0.9490353700	   5.2463090700
Li	   2.4952749400	  12.0336646300	  11.7376590700
Li	  10.4874250600	   5.5423146300	   7.7363909300
Li	   8.9866249400	   7.4403853700	   1.2450409300
Li	   5.2463090700	   3.9960750600	   0.9490353700
Li	  11.7376590700	   2.4952749400	  12.0336646300
Li	   7.7363909300	  10.4874250600	   5.5423146300
Li	   1.2450409300	   8.9866249400	   7.4403853700
Li	   8.7879896300	   5.7409499400	   4.4907159300
Li	  10.6860603700	   7.2417500600	  10.9820659300
Li	   4.1947103700	  12.2322999400	   2.0006340700
Li	   2.2966396300	   0.7504000600	   8.4919840700
Li	   5.7409499400	   4.4907159300	   8.7879896300
Li	   7.2417500600	  10.9820659300	  10.6860603700
Li	  12.2322999400	   2.0006340700	   4.1947103700
Li	   0.7504000600	   8.4919840700	   2.2966396300
Li	   4.4907159300	   8.7879896300	   5.7409499400
Li	  10.9820659300	  10.6860603700	   7.2417500600
Li	   2.0006340700	   4.1947103700	  12.2322999400
Li	   8.4919840700	   2.2966396300	   0.7504000600
Li	  10.6860603700	   0.7504000600	   2.0006340700
Li	   8.7879896300	  12.2322999400	   8.4919840700
Li	   2.2966396300	   7.2417500600	   4.4907159300
Li	   4.1947103700	   5.7409499400	  10.9820659300
Li	   0.7504000600	   2.0006340700	  10.6860603700
Li	  12.2322999400	   8.4919840700	   8.7879896300
Li	   7.2417500600	   4.4907159300	   2.2966396300
Li	   5.7409499400	  10.9820659300	   4.1947103700
Li	   2.0006340700	  10.6860603700	   0.7504000600
Li	   8.4919840700	   8.7879896300	  12.2322999400
Li	   4.4907159300	   2.2966396300	   7.2417500600
Li	  10.9820659300	   4.1947103700	   5.7409499400
Li	   5.5423146300	   1.2450409300	   2.4952749400
Li	   7.4403853700	   7.7363909300	   3.9960750600
Li	   0.9490353700	  11.7376590700	   8.9866249400
Li	  12.0336646300	   5.2463090700	  10.4874250600
Li	   2.4952749400	   5.5423146300	   1.2450409300
Li	   3.9960750600	   7.4403853700	   7.7363909300
Li	   8.9866249400	   0.9490353700	  11.7376590700
Li	  10.4874250600	  12.0336646300	   5.2463090700
Li	   1.2450409300	   2.4952749400	   5.5423146300
Li	   7.7363909300	   3.9960750600	   7.4403853700
Li	  11.7376590700	   8.9866249400	   0.9490353700
Li	   5.2463090700	  10.4874250600	  12.0336646300
Li	   7.4403853700	  11.7376590700	  10.4874250600
Li	   5.5423146300	   5.2463090700	   8.9866249400
Li	  12.0336646300	   1.2450409300	   3.9960750600
Li	   0.9490353700	   7.7363909300	   2.4952749400
Li	  10.4874250600	   7.4403853700	  11.7376590700
Li	   8.9866249400	   5.5423146300	   5.2463090700
Li	   3.9960750600	  12.0336646300	   1.2450409300
Li	   2.4952749400	   0.9490353700	   7.7363909300
Li	  11.7376590700	  10.4874250600	   7.4403853700
Li	   5.2463090700	   8.9866249400	   5.5423146300
Li	   1.2450409300	   3.9960750600	  12.0336646300
Li	   7.7363909300	   2.4952749400	   0.9490353700

K_POINTS {automatic}
3 3 3 1 1 1
