 &control
    calculation='scf'
    restart_mode='from_scratch',
    prefix='LMFPO'
    pseudo_dir = './pseudo/'
    outdir='./tmp/'
    verbosity='high'
 /
 &system
    ibrav = 0,
    celldm(1) = 19.5095,
    nat = 27,
    ntyp = 7,
    nspin = 2,
    starting_magnetization(1) = -0.5,
    starting_magnetization(2) =  0.5,
    starting_magnetization(3) = -0.5,
    starting_magnetization(4) =  0.5,
    ecutwfc = 65.0,
    ecutrho = 780.0,
    occupations = 'smearing',
    smearing = 'gauss',
    degauss = 0.005,
 /
 &electrons
    diagonalization='david'
    mixing_mode = 'local-TF'
    mixing_beta = 0.1
    conv_thr =  5.0d-10
    electron_maxstep = 300
 /
ATOMIC_SPECIES
Mn1  54.938  mn_pbesol_v1.5.uspp.F.UPF
Mn2  54.938  mn_pbesol_v1.5.uspp.F.UPF
Mn3  54.938  mn_pbesol_v1.5.uspp.F.UPF
Mn4  54.938  mn_pbesol_v1.5.uspp.F.UPF
O    15.999  O.pbesol-n-kjpaw_psl.0.1.UPF
P    30.974  P.pbesol-n-rrkjus_psl.1.0.0.UPF
Li   6.94    li_pbesol_v1.4.uspp.F.UPF
ATOMIC_POSITIONS {crystal}
Mn1          -0.0029859146       -0.0023848306       -0.0056039084
Mn2          -0.0730707585        0.5085534908       -0.5418514319
Mn3           0.5037237395       -0.0057122385       -0.4400002736
Mn4           0.4447103963        0.5044844745       -0.9435715414
O            -0.1812076334        0.0249579569       -0.2279467594
O             0.6210377733        0.4728093915       -0.7144981993
O             0.0966108440        0.5043873021       -0.7491898864
O             0.3125897232        0.0012695664       -0.1968820482
O             0.1680618810        0.0012776754       -0.7530887571
O             0.2604201767        0.5022423557       -0.1637754513
O            -0.2236687986        0.5108862560       -0.3093476964
O             0.6771666093       -0.0002566523       -0.6666820109
O             0.0495129487        0.6981002907       -0.2123060994
O             0.0529919816        0.2925257199       -0.2121589454
O             0.5510042866        0.6891629341       -0.2711062244
O             0.5699521165        0.2913901095       -0.2408994823
O            -0.1023176964       -0.1869465176       -0.6657129616
O            -0.1165791543        0.2128223970       -0.6908008830
O             0.3782375842       -0.1991486099       -0.7459854708
O             0.3782421234        0.2073362545       -0.7411018284
P            -0.1864309986        0.0082611762       -0.5437465373
P             0.6290268322        0.4941904318       -0.3983955511
P             0.1156220278        0.4984827556       -0.0727054024
P             0.3088455820        0.0031843211       -0.8752283011
Li            0.2196392781       -0.2389013410       -0.4564453537
Li            0.2229175844        0.2343323280       -0.4449205777
Li           -0.2922274560        0.2226929536       -0.9657174804
CELL_PARAMETERS {alat}
   0.995355390  -0.002843180   0.006663168
  -0.001752061   0.590094370  -0.004423704
   0.002938637  -0.003843885   0.465144512
K_POINTS {automatic}
3 4 5 0 0 0
HUBBARD {ortho-atomic}
U Mn1-3d                             4.6725
V Mn1-3d   O-2p     1      310       0.7214
V Mn1-3d   O-2p     1       14       0.7238
V Mn1-3d   O-2p     1        5       0.7866
V Mn1-3d   O-2p     1      387       0.7801
V Mn1-3d   O-2p     1      395       0.5724
V Mn1-3d   O-2p     1      396       0.4820
U Mn2-3d                             6.5600
V Mn2-3d   O-2p     2       11       0.9044
V Mn2-3d   O-2p     2       18       0.9448
V Mn2-3d   O-2p     2      449       1.0216
V Mn2-3d   O-2p     2        7       1.0104
V Mn2-3d   O-2p     2       13       0.4915
V Mn2-3d   O-2p     2       14       0.3349
U Mn3-3d                             4.6371
V Mn3-3d   O-2p     3       12       0.9109
V Mn3-3d   O-2p     3      312       0.8753
V Mn3-3d   O-2p     3       16       0.7306
V Mn3-3d   O-2p     3        8       0.4988
V Mn3-3d   O-2p     3       19       0.4193
V Mn3-3d   O-2p     3       20       0.3122
U Mn4-3d                             4.9577
V Mn4-3d   O-2p     4      451       0.7857
V Mn4-3d   O-2p     4        6       0.7750
V Mn4-3d   O-2p     4       20       0.7382
V Mn4-3d   O-2p     4      361       0.8207
V Mn4-3d   O-2p     4      366       0.5480
V Mn4-3d   O-2p     4      367       0.4078
