&control
    calculation='scf'
    prefix='MoO3_UC'
    pseudo_dir='./'
    outdir='./'
    disk_io='none'
    restart_mode='from_scratch'
    tprnfor = .TRUE.
    forc_conv_thr=1.0D-4
    wf_collect=.false.
/
&system
    ibrav = 8
    celldm(1)=22.2856989907077
    celldm(2)= 1.18166111423175
    celldm(3)=0.943468339917452
    nat=144, ntyp=2
    occupations='smearing'
    smearing = 'gaussian'
    degauss = 0.0025
    ecutwfc = 80.0
    ecutfock = 90.0
!    vdw_corr = 'grimme-d2'
!    input_dft = 'hse'
!    exxdiv_treatment = 'vcut_spherical'
!    x_gamma_extrapolation = .false.
/
&electrons
    electron_maxstep=100
    mixing_beta=0.7
/
&ions
/
ATOMIC_SPECIES
Mo  95.96  Mo.pbe-mt_fhi.UPF
O   15.9994  O.pbe-mt_fhi.UPF
ATOMIC_POSITIONS angstrom
Mo       0.322697785   1.438379339   0.956404110
Mo       0.322592962   1.438270614   4.666016480
Mo       0.322016034   1.438107615   8.374515884
Mo       4.252507808   1.446939404   0.958295369
Mo       4.252612492   1.446718036   4.667325840
Mo       4.252609708   1.446689847   8.375829526
Mo       8.184967419   1.444341474   0.956466731
Mo       8.185239514   1.444164406   4.665059748
Mo       8.184586806   1.443885443   8.373896484
Mo       3.634834905  12.482374384   2.811566981
Mo       3.634761245  12.481887236   6.520124936
Mo       3.634916733  12.481889002  10.229448912
Mo       7.566341103  12.481186309   2.810833703
Mo       7.566775601  12.480977851   6.519635499
Mo       7.566558855  12.481182088  10.228457842
Mo      11.497091039  12.474764296   2.812012316
Mo      11.497485473  12.473808505   6.520710254
Mo      11.497420731  12.473887242  10.229794870
Mo       2.282112478   5.527886285   2.768697350
Mo       2.282388125   5.528258335   6.477673604
Mo       2.282528226   5.528737595  10.186235456
Mo       6.216734054   5.531788824   2.767017538
Mo       6.217094075   5.531867181   6.475612217
Mo       6.216816933   5.532232339  10.184293354
Mo      10.145776125   5.534502158   2.765171161
Mo      10.146725843   5.535931962   6.474121292
Mo      10.146018379   5.535579126  10.182680290
Mo       1.667649997   8.426485959   0.915970516
Mo       1.667901441   8.426556736   4.623965456
Mo       1.668414609   8.426656942   8.333219024
Mo       5.598023492   8.434304117   0.912861388
Mo       5.598059703   8.434284550   4.620968772
Mo       5.598533798   8.434656163   8.330203765
Mo       9.528171940   8.430538990   0.914247477
Mo       9.528108239   8.430521520   4.622020630
Mo       9.528485519   8.431515403   8.331391232
O        1.982914127   6.047994858   0.910278393
O        1.983315332   6.048280220   4.618899420
O        1.983357655   6.050478553   8.327774547
O        5.921775132   6.055374437   0.908570948
O        5.920776134   6.056063604   4.617444936
O        5.921345335   6.057256451   8.325964961
O        9.838921257   6.055909796   0.906845799
O        9.840064877   6.056395932   4.615821335
O        9.841137034   6.058841295   8.324369784
O        1.972809682   7.906436274   2.765831219
O        1.973202407   7.908237000   6.474203543
O        1.972837010   7.907773349  10.184162395
O        5.898876738   7.914751897   2.762752345
O        5.898424900   7.917346555   6.471400132
O        5.899518486   7.917237514  10.181075967
O        9.823930711   7.910055882   2.764397749
O        9.824728462   7.913426372   6.472875123
O        9.824256552   7.913004939  10.182290805
O        0.026731890   0.916390251   2.814291992
O        0.025604421   0.914891427   6.523488443
O        0.025514470   0.914386592  10.231778886
O        3.950020234   0.926630791   2.816013914
O        3.951298291   0.924066690   6.524892359
O        3.950956896   0.925346586  10.233344633
O        7.882376365   0.924462160   2.813743164
O        7.881936549   0.924591939   6.522227456
O        7.882241291   0.924571414  10.231569192
O        3.932876581  13.003766107   0.960211795
O        3.932591600  13.003772876   4.668667941
O        3.931506592  13.002553907   8.377622107
O        7.868432451  13.000512757   0.959092625
O        7.868735984  13.000029248   4.668062049
O        7.868438023  13.000754898   8.376808762
O        0.006499436  12.992467165   0.960792661
O        0.006319449  12.992416643   4.669345899
O        0.007824992  12.990324710   8.378221274
O        2.061503274   1.219301740   0.962885333
O        2.061402121   1.219468918   4.673455651
O        2.061082068   1.220841562   8.381259766
O        5.991162822   1.225823976   0.964844612
O        5.991369533   1.226216542   4.673127781
O        5.991335631   1.225440975   8.382304353
O        9.922016101   1.212242250   0.963460028
O        9.922096552   1.210653322   4.671979999
O        9.921394764   1.209920137   8.380635957
O        1.896318052  12.701347652   2.817047440
O        1.896131889  12.700389067   6.524827392
O        1.896338625  12.700504557  10.235634827
O        5.828969261  12.709897440   2.817330946
O        5.829148520  12.707556270   6.525898601
O        5.828974716  12.708351076  10.234258538
O        9.759053132  12.700242937   2.817458943
O        9.759722196  12.700554052   6.526943994
O        9.759585480  12.700199261  10.235084749
O        0.089290432   5.769954476   2.753452920
O        0.090329338   5.771704247   6.462873315
O        0.089667743   5.770723101  10.171576158
O        4.020794833   5.747334262   2.758820545
O        4.021290731   5.746913818   6.468699830
O        4.021183892   5.749573294  10.177039495
O        7.955420655   5.752205341   2.757874303
O        7.955644834   5.754267924   6.466113809
O        7.955441062   5.753886763  10.173840570
O        3.860320480   8.207136981   0.905593047
O        3.860380339   8.207230020   4.613374448
O        3.860940302   8.206779847   8.323202425
O        7.789532045   8.212113769   0.907005288
O        7.789439333   8.211835970   4.614744880
O        7.789875786   8.212249098   8.323589110
O       11.722925864   8.201853574   0.906764963
O       11.723175235   8.202131199   4.614678643
O       11.723754218   8.202432917   8.324279213
O        0.150168180   3.109350168   0.944420208
O        0.149707448   3.109201785   4.656707792
O        0.147964427   3.108839917   8.364852476
O        4.083599693   3.118339032   0.947253048
O        4.083265670   3.118090680   4.658400097
O        4.084898948   3.118098549   8.364198527
O        8.024622895   3.116750122   0.946992376
O        8.026429705   3.116690912   4.655252672
O        8.025684559   3.116400477   8.364230321
O        3.805905053  10.811508207   2.801912813
O        3.806063250  10.811044969   6.509739207
O        3.806090036  10.811042706  10.220666566
O        7.728006610  10.809381120   2.801877091
O        7.730817344  10.809377327   6.511052804
O        7.729969004  10.809522491  10.220311171
O       11.662870157  10.803477566   2.802235457
O       11.662039596  10.802314501   6.509352832
O       11.662370806  10.802416335  10.221385611
O        2.107019743   3.856752124   2.781893882
O        2.106442440   3.857259482   6.493157620
O        2.108265367   3.857499006  10.195941917
O        6.048222385   3.860311033   2.780720423
O        6.049982166   3.860215371   6.489238939
O        6.048492009   3.860695608  10.196227261
O        9.989794832   3.861832860   2.779105285
O        9.990026999   3.863287054   6.489264613
O        9.989009694   3.862950864  10.194836151
O        1.832485567  10.097680251   0.930046769
O        1.833058231  10.097726737   4.636669361
O        1.833818645  10.097922178   8.346832922
O        5.762514281  10.105636187   0.927960044
O        5.762537400  10.105649797   4.634602168
O        5.762704358  10.106141578   8.344572061
O        9.703311482  10.100913962   0.929210104
O        9.702867572  10.100956918   4.632661029
O        9.703570840  10.101959479   8.344920926
K_POINTS automatic
2 2 2  0 0 0
