&control
calculation='scf',
restart_mode='from_scratch',
pseudo_dir = './',
outdir='./',
prefix = 'scf_'
/
&system
ibrav=0, celldm(1)=1, ecutwfc=40, ecutrho = 300,
occupations = 'smearing', smearing = 'gauss', degauss = 0.001,
nat=128 ntyp=2
/
&electrons
conv_thr =  1.0d-11,
mixing_beta = 0.7,
electron_maxstep = 100
/
ATOMIC_SPECIES
Ge 0.0 ge_lda_v1.uspp.F.UPF
Si 0.0 si_lda_v1.uspp.F.UPF
CELL_PARAMETERS
       20.52507100       20.52507100        0.00000000
       20.52507100        0.00000000       20.52507100
        0.00000000       20.52507100       20.52507100
ATOMIC_POSITIONS (crystal)
Ge          0.00000000         0.00000000         0.00000000
Si          0.50000000         0.50000000         0.50000000
Si          0.25000000         0.75000000         0.75000000
Si          0.75000000         0.25000000         0.25000000
Si          0.75000000         0.25000000         0.75000000
Si          0.50000000         0.50000000         0.00000000
Si          0.25000000         0.75000000         0.25000000
Si          0.00000000         0.00000000         0.50000000
Si          0.75000000         0.75000000         0.25000000
Si          0.50000000         0.00000000         0.50000000
Si          0.25000000         0.25000000         0.75000000
Si          0.00000000         0.50000000         0.00000000
Si          0.00000000         0.50000000         0.50000000
Si          0.75000000         0.75000000         0.75000000
Si          0.50000000         0.00000000         0.00000000
Si          0.25000000         0.25000000         0.25000000
Si          0.50000000         0.50000000         0.75000000
Si          0.25000000         0.75000000         0.00000000
Si          0.00000000         0.00000000         0.25000000
Si          0.75000000         0.25000000         0.50000000
Si          0.75000000         0.25000000         0.00000000
Si          0.50000000         0.50000000         0.25000000
Si          0.25000000         0.75000000         0.50000000
Si          0.00000000         0.00000000         0.75000000
Si          0.75000000         0.75000000         0.50000000
Si          0.50000000         0.00000000         0.75000000
Si          0.25000000         0.25000000         0.00000000
Si          0.00000000         0.50000000         0.25000000
Si          0.00000000         0.50000000         0.75000000
Si          0.75000000         0.75000000         0.00000000
Si          0.50000000         0.00000000         0.25000000
Si          0.25000000         0.25000000         0.50000000
Si          0.50000000         0.75000000         0.50000000
Si          0.25000000         0.00000000         0.75000000
Si          0.00000000         0.25000000         0.00000000
Si          0.75000000         0.50000000         0.25000000
Si          0.75000000         0.50000000         0.75000000
Si          0.50000000         0.75000000         0.00000000
Si          0.25000000         0.00000000         0.25000000
Si          0.00000000         0.25000000         0.50000000
Si          0.75000000         0.00000000         0.25000000
Si          0.50000000         0.25000000         0.50000000
Si          0.25000000         0.50000000         0.75000000
Si          0.00000000         0.75000000         0.00000000
Si          0.00000000         0.75000000         0.50000000
Si          0.75000000         0.00000000         0.75000000
Si          0.50000000         0.25000000         0.00000000
Si          0.25000000         0.50000000         0.25000000
Si          0.75000000         0.50000000         0.50000000
Si          0.50000000         0.75000000         0.75000000
Si          0.25000000         0.00000000         0.00000000
Si          0.00000000         0.25000000         0.25000000
Si          0.00000000         0.25000000         0.75000000
Si          0.75000000         0.50000000         0.00000000
Si          0.50000000         0.75000000         0.25000000
Si          0.25000000         0.00000000         0.50000000
Si          0.00000000         0.75000000         0.25000000
Si          0.75000000         0.00000000         0.50000000
Si          0.50000000         0.25000000         0.75000000
Si          0.25000000         0.50000000         0.00000000
Si          0.25000000         0.50000000         0.50000000
Si          0.00000000         0.75000000         0.75000000
Si          0.75000000         0.00000000         0.00000000
Si          0.50000000         0.25000000         0.25000000
Si          0.81250000         0.56250000         0.56250000
Si          0.56250000         0.81250000         0.81250000
Si          0.31250000         0.06250000         0.06250000
Si          0.06250000         0.31250000         0.31250000
Si          0.06250000         0.31250000         0.81250000
Si          0.81250000         0.56250000         0.06250000
Si          0.56250000         0.81250000         0.31250000
Si          0.31250000         0.06250000         0.56250000
Si          0.06250000         0.81250000         0.31250000
Si          0.81250000         0.06250000         0.56250000
Si          0.56250000         0.31250000         0.81250000
Si          0.31250000         0.56250000         0.06250000
Si          0.31250000         0.56250000         0.56250000
Si          0.06250000         0.81250000         0.81250000
Si          0.81250000         0.06250000         0.06250000
Si          0.56250000         0.31250000         0.31250000
Si          0.56250000         0.81250000         0.56250000
Si          0.31250000         0.06250000         0.81250000
Si          0.06250000         0.31250000         0.06250000
Si          0.81250000         0.56250000         0.31250000
Si          0.81250000         0.56250000         0.81250000
Si          0.56250000         0.81250000         0.06250000
Si          0.31250000         0.06250000         0.31250000
Si          0.06250000         0.31250000         0.56250000
Si          0.81250000         0.06250000         0.31250000
Si          0.56250000         0.31250000         0.56250000
Si          0.31250000         0.56250000         0.81250000
Si          0.06250000         0.81250000         0.06250000
Si          0.06250000         0.81250000         0.56250000
Si          0.81250000         0.06250000         0.81250000
Si          0.56250000         0.31250000         0.06250000
Si          0.31250000         0.56250000         0.31250000
Si          0.56250000         0.56250000         0.81250000
Si          0.31250000         0.81250000         0.06250000
Si          0.06250000         0.06250000         0.31250000
Si          0.81250000         0.31250000         0.56250000
Si          0.81250000         0.31250000         0.06250000
Si          0.56250000         0.56250000         0.31250000
Si          0.31250000         0.81250000         0.56250000
Si          0.06250000         0.06250000         0.81250000
Si          0.81250000         0.81250000         0.56250000
Si          0.56250000         0.06250000         0.81250000
Si          0.31250000         0.31250000         0.06250000
Si          0.06250000         0.56250000         0.31250000
Si          0.06250000         0.56250000         0.81250000
Si          0.81250000         0.81250000         0.06250000
Si          0.56250000         0.06250000         0.31250000
Si          0.31250000         0.31250000         0.56250000
Si          0.56250000         0.56250000         0.56250000
Si          0.31250000         0.81250000         0.81250000
Si          0.06250000         0.06250000         0.06250000
Si          0.81250000         0.31250000         0.31250000
Si          0.81250000         0.31250000         0.81250000
Si          0.56250000         0.56250000         0.06250000
Si          0.31250000         0.81250000         0.31250000
Si          0.06250000         0.06250000         0.56250000
Si          0.81250000         0.81250000         0.31250000
Si          0.56250000         0.06250000         0.56250000
Si          0.31250000         0.31250000         0.81250000
Si          0.06250000         0.56250000         0.06250000
Si          0.06250000         0.56250000         0.56250000
Si          0.81250000         0.81250000         0.81250000
Si          0.56250000         0.06250000         0.06250000
Si          0.31250000         0.31250000         0.31250000
K_POINTS (automatic)
2 2 2  0 0 0
