
&control
  calculation='scf',
  restart_mode='from_scratch',
  pseudo_dir = './',
  outdir='./',
  prefix = 'scf_'
/
&system
  ibrav=0, celldm(1)=1, ecutwfc=40, ecutrho = 300,
  occupations = 'smearing', smearing = 'gauss', degauss = 0.002, nosym=.true.,
  nat=64, ntyp=2
/
&electrons
  conv_thr =  1.0d-8,
  mixing_beta = 0.7,
  electron_maxstep = 100
/
ATOMIC_SPECIES
  Si 0.0 si_lda_v1.uspp.F.UPF
  Ge 0.0 ge_lda_v1.uspp.F.UPF

CELL_PARAMETERS
     20.525071         0.0000000000       0.0000000000
      0.0000000000    20.525071           0.0000000000
      0.0000000000     0.0000000000      20.525071

ATOMIC_POSITIONS (crystal)
Ge 0 0 0
Si 0 0 0.5
Si 0 0.5 0
Si 0 0.5 0.5
Si 0.5 0 0
Si 0.5 0 0.5
Si 0.5 0.5 0
Si 0.5 0.5 0.5
Si 0 0.25 0.25
Si 0 0.25 0.75
Si 0 0.75 0.25
Si 0 0.75 0.75
Si 0.5 0.25 0.25
Si 0.5 0.25 0.75
Si 0.5 0.75 0.25
Si 0.5 0.75 0.75
Si 0.25 0 0.25
Si 0.25 0 0.75
Si 0.25 0.5 0.25
Si 0.25 0.5 0.75
Si 0.75 0 0.25
Si 0.75 0 0.75
Si 0.75 0.5 0.25
Si 0.75 0.5 0.75
Si 0.25 0.25 0
Si 0.25 0.25 0.5
Si 0.25 0.75 0
Si 0.25 0.75 0.5
Si 0.75 0.25 0
Si 0.75 0.25 0.5
Si 0.75 0.75 0
Si 0.75 0.75 0.5
Si 0.375 0.375 0.125
Si 0.375 0.375 0.625
Si 0.375 0.875 0.125
Si 0.375 0.875 0.625
Si 0.875 0.375 0.125
Si 0.875 0.375 0.625
Si 0.875 0.875 0.125
Si 0.875 0.875 0.625
Si 0.375 0.125 0.375
Si 0.375 0.125 0.875
Si 0.375 0.625 0.375
Si 0.375 0.625 0.875
Si 0.875 0.125 0.375
Si 0.875 0.125 0.875
Si 0.875 0.625 0.375
Si 0.875 0.625 0.875
Si 0.125 0.375 0.375
Si 0.125 0.375 0.875
Si 0.125 0.875 0.375
Si 0.125 0.875 0.875
Si 0.625 0.375 0.375
Si 0.625 0.375 0.875
Si 0.625 0.875 0.375
Si 0.625 0.875 0.875
Si 0.125 0.125 0.125
Si 0.125 0.125 0.625
Si 0.125 0.625 0.125
Si 0.125 0.625 0.625
Si 0.625 0.125 0.125
Si 0.625 0.125 0.625
Si 0.625 0.625 0.125
Si 0.625 0.625 0.625

K_POINTS (automatic)
2 2 2  0 0 0
