&CONTROL
  calculation = 'scf'
  max_seconds = 13774
  outdir = './out/'
  prefix = 'aiid_'
  pseudo_dir = './pseudo/'
  restart_mode = 'from_scratch'
  verbosity = 'high'
/
&SYSTEM
  degauss =   2.0000000000d-02
  ecutrho =   3.6000000000d+02
  ecutwfc =   4.5000000000d+01
  ibrav = 0
  nat = 48
  nspin = 2
  ntyp = 2
  occupations = 'smearing'
  smearing = 'cold'
  starting_magnetization(1) =   0.0000000000d+00
  starting_magnetization(2) =   4.1666666667d-01
/
&ELECTRONS
  conv_thr =   4.8000000000d-07
  electron_maxstep = 100
  mixing_beta =   3.5000000000d-01
/
ATOMIC_SPECIES
Si     28.0855 Si.pbe-n-rrkjus_psl.1.0.0.UPF
Zr     91.224 Zr_pbe_v1.uspp.F.UPF
ATOMIC_POSITIONS angstrom
Zr           0.9456231677       3.0351169530       2.6123555007 
Zr           0.8656292576       3.0096051826       8.0385390578 
Zr           0.8932914805       6.4850395805       4.0222559177 
Zr           0.9327377678       6.4687098146       9.3604322238 
Zr           4.6405010939       2.9927100080       2.6640936413 
Zr           4.6945371590       3.0781557973       8.0668679080 
Zr           4.6878363487       6.5506586674       4.1043687955 
Zr           4.7362285775       6.5901324495       9.4185743048 
Zr           8.4239774626       2.9642158183       2.6742997776 
Zr           8.4410011034       3.0358233115       8.0841195408 
Zr           8.5358194514       6.4928333244       4.0084602643 
Zr           8.4602017620       6.4804894062       9.3926210857 
Zr           2.8531688616       0.4500567875       4.0169826561 
Zr           2.8056668795       0.5391657439       9.3737792619 
Zr           2.7712980559       4.0455219460       5.2548520208 
Zr           2.7987146721       4.0356857397      10.5647056843 
Zr           6.5254577701       0.4891725904       4.0026971936 
Zr           6.5645352143       0.4416901666       9.2826330852 
Zr           6.5635883405       4.1113015925       5.3370967848 
Zr           6.5688365596       4.1012290873      10.5920465176 
Zr          10.3559372737       0.5777952685       3.9291984991 
Zr          10.2939898180       0.5126159982       9.2665626924 
Zr          10.4356544242       4.0480913047       5.2731551185 
Zr          10.3561610501       3.9651592708      10.6557006199 
Si           2.8281866585       1.5485478628       1.4521080971 
Si           2.7764648343       1.4543035001       6.6747676819 
Si           2.8608935533       5.0014630471       2.8077463726 
Si           2.8538552122       4.9471165778       8.0400771479 
Si           6.5624585922       1.5310000732       1.3411409069 
Si           6.5183009086       1.4763387935       6.7148728136 
Si           6.6477585425       5.0192634887       2.7987189821 
Si           6.6144216228       5.0919184594       8.0380336184 
Si          10.4058100873       1.4245509164       1.4270521292 
Si          10.2928304076       1.4770998317       6.7569776543 
Si          10.4031626275       5.0157436595       2.6664871110 
Si          10.3629249172       5.0700261015       8.0031874090 
Si           0.9064429569       2.0028012217       5.3249947420 
Si           0.8793238749       1.9933117631      10.5996828674 
Si           1.0161442935       5.5630260767       6.5734355926 
Si           0.8802413355       5.5463846121      11.9732479533 
Si           4.7738069731       2.0834955443       5.2363210446 
Si           4.6558587667       2.0164950174      10.6434319633 
Si           4.7254672124       5.4966789132       6.6253320571 
Si           4.7904584208       5.5839941047      11.9387703652 
Si           8.5018696144       2.0358664486       5.1881653617 
Si           8.4275979671       1.9880302477      10.5676279457 
Si           8.4894745472       5.6355042329       6.6512463366 
Si           8.5489279771       5.5512108103      11.9671136437 
K_POINTS automatic
6 9 7 0 0 0
CELL_PARAMETERS angstrom
     11.3083500000       0.0000000000       0.0000000000
     -0.0000000000       7.0605095066       2.6754527997
      0.0000000000       0.0000000000      10.6540800000
