 &CONTROL
                 calculation = 'scf' ,
                restart_mode = 'from_scratch' ,
                      outdir = './outdir' ,
                  pseudo_dir = './' ,
                      prefix = 'Mn1_taa' ,
                     disk_io = 'none' ,
                     tstress = .false. ,
                     tprnfor = .false. ,
 /

 &SYSTEM
                       ibrav = 0 ,
!                  celldm(1) = 1.889725989 ,
                         nat = 53 ,
                        ntyp = 4 ,
                     ecutwfc = 80.0 ,
                     ecutrho = 500.0 ,
!                       nbnd = 602 ,
                 occupations = 'smearing' ,
                    smearing = 'gaussian' ,
                     degauss = 2.94d-3 , ! 1.47d-3 Ry = 1d-2 eV
                       nspin = 2 ,
   starting_magnetization(1) = 0.0 ,
   starting_magnetization(2) = 0.0 ,
   starting_magnetization(3) =  0.5 ,
   starting_magnetization(4) = 0.0 ,
!                      report = 1 ,
!                  lda_plus_u = .true. ,
!             lda_plus_u_kind = 1 ,
!                Hubbard_U(3) = 4.0 ,
!              Hubbard_J(1,3) = 1.0 ,
 /
 
 &ELECTRONS
            electron_maxstep = 180 ,
!            diagonalization = 'david' ,
!                mixing_mode = 'local-TF' ,
                    conv_thr = 1.d-6 , ! 7.34d-7 Ry = 1d-5 eV
                 mixing_beta = 0.4 
 /

! &IONS
!                ion_dynamics = 'bfgs' ,
!               ion_positions = 'default' ,
! /

CELL_PARAMETERS angstrom 
    20.3090000000000011    0.0000000000000000    0.0000000000000000
    0.0000000000000000   20.3090000000000011    0.0000000000000000
    0.0000000000000000    0.0000000000000000   20.3090000000000011

ATOMIC_SPECIES
    C   12.01100  C.pbe-n-kjpaw_psl.0.1.UPF  
    H    1.00800  H.pbe-kjpaw_psl.0.1.UPF 
   Mn   54.93800  Mn.pbe-spn-kjpaw_psl.0.3.1.UPF
    N   14.00700  N.pbe-n-kjpaw_psl.0.1.UPF  

ATOMIC_POSITIONS angstrom
 C    7.086764   10.949882    8.480734
 C   10.944033    8.496554    7.083678
 C    8.480612    7.094706   10.951161
 C    7.138350   12.358839    8.468691
 C   12.349010    8.473240    7.130186
 C    8.462111    7.133596   12.361581
 C    8.499296   12.694099    8.400025
 C   12.690242    8.389404    8.494381
 C    8.397914    8.491579   12.707200
 C    9.228978   11.484313    8.374193
 C   11.485592    8.369096    9.222439
 C    8.375005    9.225851   11.498793
 C    6.076798    9.966256    8.503987
 C    9.956487    8.518711    6.066766
 C    8.499438    6.081266    9.968369
 C    5.485054    7.647861    8.464000
 C    7.642987    8.461542    5.465355
 C    8.467776    5.469234    7.650603
 C    5.290007    7.002320    7.082337
 C    7.002807    7.076001    5.278919
 C    7.084876    5.280299    7.002726
 H    6.279766   13.025523    8.486786
 H   13.014352    8.498931    6.270465
 H    8.472813    6.269165   13.021196
 H    8.926008   13.694866    8.366820
 H   13.692267    8.351345    8.916341
 H    8.367856    8.912665   13.710077
 H   10.303507   11.334636    8.330589
 H   11.334393    8.320598   10.297049
 H    8.334286   10.302086   11.355371
 H    5.010839   10.213843    8.568306
 H   10.212909    8.588981    5.002858
 H    8.555186    5.017318   10.230151
 H    4.511137    8.032514    8.812400
 H    8.023477    8.806003    4.488451
 H    8.812502    4.492858    8.032677
 H    5.816965    6.875856    9.175789
 H    6.868950    9.169839    5.799073
 H    9.178957    5.803601    6.879674
 H    4.524825    6.210574    7.205998
 H    6.206308    7.193995    4.517798
 H    7.208497    4.517534    6.209111
 H    4.861041    7.753591    6.400990
 H    7.754281    6.395466    4.849383
 H    6.402250    4.851556    7.752798
Mn    8.461156    8.465055    8.456444
 N    8.380143   10.433971    8.427768
 N   10.432449    8.438856    8.372913
 N    8.431281    8.385972   10.443660
 N    6.474692    8.711038    8.448646
 N    8.704255    8.453134    6.455987
 N    8.454048    6.460434    8.710774
 N    6.489315    6.481597    6.484095


K_POINTS automatic 
  1 1 1   0 0 0

