&control
            calculation = 'scf',
           restart_mode = 'from_scratch',
                 prefix = 'BaTiO3'
             pseudo_dir = './'
                 outdir = './tmp/'
!               disk_io = 'low',  
              verbosity = 'high'
/
&SYSTEM
                  ibrav = 0,                   ! // Rhombohedral
                    nat = 135                  ! // a.atoms.size()
                   ntyp = 3                    ! // a.num_each_type.size()
                ecutwfc = 80,
                ecutrho = 800,
/
&electrons
            mixing_beta = 0.3,           ! 0.3
               conv_thr = 1.0d-10        ! 1.0d-15
       electron_maxstep = 25             ! 300
/

K_POINTS {automatic}
2 2 2  0 0 0

ATOMIC_SPECIES
 Ti   47.86700   Ti.pbesol-spn-rrkjus_psl.1.0.0.UPF
  O   15.99940   O.pbesol-n-rrkjus_psl.1.0.0.UPF
 Ba  137.32700   Ba.pbesol-spn-rrkjus_psl.1.0.0.UPF

CELL_PARAMETERS bohr
   15.9962163779999997   -9.2354198309999997   13.0608034170000007
    0.0000000000000000   18.4708396619999995   13.0608034170000007
  -15.9962163779999997   -9.2354198309999997   13.0608034170000007

ATOMIC_POSITIONS crystal
 Ti   0.1685281471333333  0.1685281471333333  0.1685281471333333
 Ti   0.5018614804666666  0.1685281471333333  0.1685281471333333
 Ti   0.8351948137999999  0.1685281471333333  0.1685281471333333
 Ti   0.1685281471333333  0.5018614804666666  0.1685281471333333
 Ti   0.5018614804666666  0.5018614804666666  0.1685281471333333
 Ti   0.8351948137999999  0.5018614804666666  0.1685281471333333
 Ti   0.1685281471333333  0.8351948137999999  0.1685281471333333
 Ti   0.5018614804666666  0.8351948137999999  0.1685281471333333
 Ti   0.8351948137999999  0.8351948137999999  0.1685281471333333
 Ti   0.1685281471333333  0.1685281471333333  0.5018614804666666
 Ti   0.5018614804666666  0.1685281471333333  0.5018614804666666
 Ti   0.8351948137999999  0.1685281471333333  0.5018614804666666
 Ti   0.1685281471333333  0.5018614804666666  0.5018614804666666
 Ti   0.5018614804666666  0.5018614804666666  0.5018614804666666
 Ti   0.8351948137999999  0.5018614804666666  0.5018614804666666
 Ti   0.1685281471333333  0.8351948137999999  0.5018614804666666
 Ti   0.5018614804666666  0.8351948137999999  0.5018614804666666
 Ti   0.8351948137999999  0.8351948137999999  0.5018614804666666
 Ti   0.1685281471333333  0.1685281471333333  0.8351948137999999
 Ti   0.5018614804666666  0.1685281471333333  0.8351948137999999
 Ti   0.8351948137999999  0.1685281471333333  0.8351948137999999
 Ti   0.1685281471333333  0.5018614804666666  0.8351948137999999
 Ti   0.5018614804666666  0.5018614804666666  0.8351948137999999
 Ti   0.8351948137999999  0.5018614804666666  0.8351948137999999
 Ti   0.1685281471333333  0.8351948137999999  0.8351948137999999
 Ti   0.5018614804666666  0.8351948137999999  0.8351948137999999
 Ti   0.8351948137999999  0.8351948137999999  0.8351948137999999
  O   0.1685644213333333  0.1685644213333333  0.0019051936333333
  O   0.5018977546666666  0.1685644213333333  0.0019051936333333
  O   0.8352310880000000  0.1685644213333333  0.0019051936333333
  O   0.1685644213333333  0.5018977546666666  0.0019051936333333
  O   0.5018977546666666  0.5018977546666666  0.0019051936333333
  O   0.8352310880000000  0.5018977546666666  0.0019051936333333
  O   0.1685644213333333  0.8352310880000000  0.0019051936333333
  O   0.5018977546666666  0.8352310880000000  0.0019051936333333
  O   0.8352310880000000  0.8352310880000000  0.0019051936333333
  O   0.1685644213333333  0.1685644213333333  0.3352385269666667
  O   0.5018977546666666  0.1685644213333333  0.3352385269666667
  O   0.8352310880000000  0.1685644213333333  0.3352385269666667
  O   0.1685644213333333  0.5018977546666666  0.3352385269666667
  O   0.5018977546666666  0.5018977546666666  0.3352385269666667
  O   0.8352310880000000  0.5018977546666666  0.3352385269666667
  O   0.1685644213333333  0.8352310880000000  0.3352385269666667
  O   0.5018977546666666  0.8352310880000000  0.3352385269666667
  O   0.8352310880000000  0.8352310880000000  0.3352385269666667
  O   0.1685644213333333  0.1685644213333333  0.6685718602999999
  O   0.5018977546666666  0.1685644213333333  0.6685718602999999
  O   0.8352310880000000  0.1685644213333333  0.6685718602999999
  O   0.1685644213333333  0.5018977546666666  0.6685718602999999
  O   0.5018977546666666  0.5018977546666666  0.6685718602999999
  O   0.8352310880000000  0.5018977546666666  0.6685718602999999
  O   0.1685644213333333  0.8352310880000000  0.6685718602999999
  O   0.5018977546666666  0.8352310880000000  0.6685718602999999
  O   0.8352310880000000  0.8352310880000000  0.6685718602999999
  O   0.1685644213333333  0.0019051936333333  0.1685644213333333
  O   0.5018977546666666  0.0019051936333333  0.1685644213333333
  O   0.8352310880000000  0.0019051936333333  0.1685644213333333
  O   0.1685644213333333  0.3352385269666667  0.1685644213333333
  O   0.5018977546666666  0.3352385269666667  0.1685644213333333
  O   0.8352310880000000  0.3352385269666667  0.1685644213333333
  O   0.1685644213333333  0.6685718602999999  0.1685644213333333
  O   0.5018977546666666  0.6685718602999999  0.1685644213333333
  O   0.8352310880000000  0.6685718602999999  0.1685644213333333
  O   0.1685644213333333  0.0019051936333333  0.5018977546666666
  O   0.5018977546666666  0.0019051936333333  0.5018977546666666
  O   0.8352310880000000  0.0019051936333333  0.5018977546666666
  O   0.1685644213333333  0.3352385269666667  0.5018977546666666
  O   0.5018977546666666  0.3352385269666667  0.5018977546666666
  O   0.8352310880000000  0.3352385269666667  0.5018977546666666
  O   0.1685644213333333  0.6685718602999999  0.5018977546666666
  O   0.5018977546666666  0.6685718602999999  0.5018977546666666
  O   0.8352310880000000  0.6685718602999999  0.5018977546666666
  O   0.1685644213333333  0.0019051936333333  0.8352310880000000
  O   0.5018977546666666  0.0019051936333333  0.8352310880000000
  O   0.8352310880000000  0.0019051936333333  0.8352310880000000
  O   0.1685644213333333  0.3352385269666667  0.8352310880000000
  O   0.5018977546666666  0.3352385269666667  0.8352310880000000
  O   0.8352310880000000  0.3352385269666667  0.8352310880000000
  O   0.1685644213333333  0.6685718602999999  0.8352310880000000
  O   0.5018977546666666  0.6685718602999999  0.8352310880000000
  O   0.8352310880000000  0.6685718602999999  0.8352310880000000
  O   0.0019051936333333  0.1685644213333333  0.1685644213333333
  O   0.3352385269666667  0.1685644213333333  0.1685644213333333
  O   0.6685718602999999  0.1685644213333333  0.1685644213333333
  O   0.0019051936333333  0.5018977546666666  0.1685644213333333
  O   0.3352385269666667  0.5018977546666666  0.1685644213333333
  O   0.6685718602999999  0.5018977546666666  0.1685644213333333
  O   0.0019051936333333  0.8352310880000000  0.1685644213333333
  O   0.3352385269666667  0.8352310880000000  0.1685644213333333
  O   0.6685718602999999  0.8352310880000000  0.1685644213333333
  O   0.0019051936333333  0.1685644213333333  0.5018977546666666
  O   0.3352385269666667  0.1685644213333333  0.5018977546666666
  O   0.6685718602999999  0.1685644213333333  0.5018977546666666
  O   0.0019051936333333  0.5018977546666666  0.5018977546666666
  O   0.3352385269666667  0.5018977546666666  0.5018977546666666
  O   0.6685718602999999  0.5018977546666666  0.5018977546666666
  O   0.0019051936333333  0.8352310880000000  0.5018977546666666
  O   0.3352385269666667  0.8352310880000000  0.5018977546666666
  O   0.6685718602999999  0.8352310880000000  0.5018977546666666
  O   0.0019051936333333  0.1685644213333333  0.8352310880000000
  O   0.3352385269666667  0.1685644213333333  0.8352310880000000
  O   0.6685718602999999  0.1685644213333333  0.8352310880000000
  O   0.0019051936333333  0.5018977546666666  0.8352310880000000
  O   0.3352385269666667  0.5018977546666666  0.8352310880000000
  O   0.6685718602999999  0.5018977546666666  0.8352310880000000
  O   0.0019051936333333  0.8352310880000000  0.8352310880000000
  O   0.3352385269666667  0.8352310880000000  0.8352310880000000
  O   0.6685718602999999  0.8352310880000000  0.8352310880000000
 Ba   0.0018711499000000  0.0018711499000000  0.0018711499000000
 Ba   0.3352044832333333  0.0018711499000000  0.0018711499000000
 Ba   0.6685378165666667  0.0018711499000000  0.0018711499000000
 Ba   0.0018711499000000  0.3352044832333333  0.0018711499000000
 Ba   0.3352044832333333  0.3352044832333333  0.0018711499000000
 Ba   0.6685378165666667  0.3352044832333333  0.0018711499000000
 Ba   0.0018711499000000  0.6685378165666667  0.0018711499000000
 Ba   0.3352044832333333  0.6685378165666667  0.0018711499000000
 Ba   0.6685378165666667  0.6685378165666667  0.0018711499000000
 Ba   0.0018711499000000  0.0018711499000000  0.3352044832333333
 Ba   0.3352044832333333  0.0018711499000000  0.3352044832333333
 Ba   0.6685378165666667  0.0018711499000000  0.3352044832333333
 Ba   0.0018711499000000  0.3352044832333333  0.3352044832333333
 Ba   0.3352044832333333  0.3352044832333333  0.3352044832333333
 Ba   0.6685378165666667  0.3352044832333333  0.3352044832333333
 Ba   0.0018711499000000  0.6685378165666667  0.3352044832333333
 Ba   0.3352044832333333  0.6685378165666667  0.3352044832333333
 Ba   0.6685378165666667  0.6685378165666667  0.3352044832333333
 Ba   0.0018711499000000  0.0018711499000000  0.6685378165666667
 Ba   0.3352044832333333  0.0018711499000000  0.6685378165666667
 Ba   0.6685378165666667  0.0018711499000000  0.6685378165666667
 Ba   0.0018711499000000  0.3352044832333333  0.6685378165666667
 Ba   0.3352044832333333  0.3352044832333333  0.6685378165666667
 Ba   0.6685378165666667  0.3352044832333333  0.6685378165666667
 Ba   0.0018711499000000  0.6685378165666667  0.6685378165666667
 Ba   0.3352044832333333  0.6685378165666667  0.6685378165666667
 Ba   0.6685378165666667  0.6685378165666667  0.6685378165666667

HUBBARD {ortho-atomic}
U Ti-3d 4.6073 
