 &control
    calculation = 'scf',
    restart_mode='from_scratch',
    prefix='rutile',
    pseudo_dir = './',
    outdir='./',
    disk_io='none',
    use_sirius=.true.
 /
 &system
    ibrav=0,
    nat=  48, ntyp= 2,
    ecutwfc =30.0,
    ecutrho = 400.0,
    occupations='smearing',
    smearing='gaussian',
    degauss=0.002
 /
 &electrons
    diagonalization='david',
    mixing_beta = 0.7,
    conv_thr =  1e-10
 /

ATOMIC_SPECIES
 Ti 47.867 ti_lda_v1.4.uspp.F.UPF
 O  15.9994 o_lda_v1.2.uspp.F.UPF

ATOMIC_POSITIONS crystal
 Ti   0.000000000000000       0.000000000000000       0.000000000000000
 Ti   0.250000000000000       0.250000000000000       0.250000000000000
 Ti   0.500000000000000       0.000000000000000       0.000000000000000
 Ti   0.750000000000000       0.250000000000000       0.250000000000000
 Ti   0.000000000000000       0.500000000000000       0.000000000000000
 Ti   0.250000000000000       0.750000000000000       0.250000000000000
 Ti   0.500000000000000       0.500000000000000       0.000000000000000
 Ti   0.750000000000000       0.750000000000000       0.250000000000000
 Ti   0.000000000000000       0.000000000000000       0.500000000000000
 Ti   0.250000000000000       0.250000000000000       0.750000000000000
 Ti   0.500000000000000       0.000000000000000       0.500000000000000
 Ti   0.750000000000000       0.250000000000000       0.750000000000000
 Ti   0.000000000000000       0.500000000000000       0.500000000000000
 Ti   0.250000000000000       0.750000000000000       0.750000000000000
 Ti   0.500000000000000       0.500000000000000       0.500000000000000
 Ti   0.750000000000000       0.750000000000000       0.750000000000000
 O    0.152500000000000       0.152500000000000       0.000000000000000
 O    0.097500000000000       0.402500000000000       0.250000000000000
 O    0.347500000000000       0.347500000000000       0.000000000000000
 O    0.402500000000000       0.097500000000000       0.250000000000000
 O    0.652500000000000       0.152500000000000       0.000000000000000
 O    0.597500000000000       0.402500000000000       0.250000000000000
 O    0.847500000000000       0.347500000000000       0.000000000000000
 O    0.902500000000000       0.097500000000000       0.250000000000000
 O    0.152500000000000       0.652500000000000       0.000000000000000
 O    0.097500000000000       0.902500000000000       0.250000000000000
 O    0.347500000000000       0.847500000000000       0.000000000000000
 O    0.402500000000000       0.597500000000000       0.250000000000000
 O    0.652500000000000       0.652500000000000       0.000000000000000
 O    0.597500000000000       0.902500000000000       0.250000000000000
 O    0.847500000000000       0.847500000000000       0.000000000000000
 O    0.902500000000000       0.597500000000000       0.250000000000000
 O    0.152500000000000       0.152500000000000       0.500000000000000
 O    0.097500000000000       0.402500000000000       0.750000000000000
 O    0.347500000000000       0.347500000000000       0.500000000000000
 O    0.402500000000000       0.097500000000000       0.750000000000000
 O    0.652500000000000       0.152500000000000       0.500000000000000
 O    0.597500000000000       0.402500000000000       0.750000000000000
 O    0.847500000000000       0.347500000000000       0.500000000000000
 O    0.902500000000000       0.097500000000000       0.750000000000000
 O    0.152500000000000       0.652500000000000       0.500000000000000
 O    0.097500000000000       0.902500000000000       0.750000000000000
 O    0.347500000000000       0.847500000000000       0.500000000000000
 O    0.402500000000000       0.597500000000000       0.750000000000000
 O    0.652500000000000       0.652500000000000       0.500000000000000
 O    0.597500000000000       0.902500000000000       0.750000000000000
 O    0.847500000000000       0.847500000000000       0.500000000000000
 O    0.902500000000000       0.597500000000000       0.750000000000000

K_POINTS automatic
2 2 2 0 0 0

CELL_PARAMETERS angstrom
   9.186000000000000       0.000000000000000       0.000000000000000
   0.000000000000000       9.186000000000000       0.000000000000000
   0.000000000000000       0.000000000000000       5.916000000000000

