&CONTROL
  calculation = 'scf'
  outdir = './out/'
  prefix = 'aiida_'
  pseudo_dir = './pseudo/'
  restart_mode = 'from_scratch'
  verbosity = 'high'
/
&SYSTEM
  degauss =   2.0000000000d-02
  ecutrho =   3.6000000000d+02
  ecutwfc =   4.5000000000d+01
  ibrav = 0
  nat = 144
  nspin = 2
  ntyp = 2
  occupations = 'smearing'
  smearing = 'cold'
  starting_magnetization(1) =   0.0000000000d+00
  starting_magnetization(2) =   4.1666666667d-01
/
&ELECTRONS
  conv_thr =   1.4400000000d-06
  electron_maxstep = 100
  mixing_beta =   3.5000000000d-01
/
ATOMIC_SPECIES
Si     28.0855 Si.pbe-n-rrkjus_psl.1.0.0.UPF
Zr     91.224 Zr_pbe_v1.uspp.F.UPF
ATOMIC_POSITIONS angstrom
Zr           0.9052564256       3.0561573127       2.7498988520 
Zr           0.8790829491       3.0529836454       7.9834879364 
Zr           0.9726371644       3.0872248686      13.3699297200 
Zr           1.0163647407       6.5649291828       4.0533020645 
Zr           0.9379471884       6.5488480492       9.4350072144 
Zr           0.9210370067       6.4877744502      14.7303811040 
Zr           0.9209682321      10.0398779956       5.2989385520 
Zr           0.9054503782      10.0840272760      10.7635968119 
Zr           1.0216194825      10.0732386635      16.0295779035 
Zr           4.6948922731       2.9437778872       2.6648793311 
Zr           4.6558403385       3.0717371746       8.0360299102 
Zr           4.6778303816       2.9453848166      13.3404285430 
Zr           4.7134186205       6.6205719730       3.9945720428 
Zr           4.7251628081       6.6048054889       9.3004585035 
Zr           4.6984804654       6.4708851070      14.6653522064 
Zr           4.6919250057      10.0094252045       5.3301328916 
Zr           4.7854551787      10.0697017959      10.6627869250 
Zr           4.7484522050      10.1046670472      15.9538901607 
Zr           8.4442117862       3.0814620756       2.7213721032 
Zr           8.4248422503       2.9695561611       8.0473945883 
Zr           8.4752768120       2.9751716492      13.4119441530 
Zr           8.4388536785       6.6150205867       4.0382564748 
Zr           8.5558058416       6.5520785408       9.3838789243 
Zr           8.4718450823       6.4737271744      14.7104940374 
Zr           8.4668385926      10.1115158664       5.2945293323 
Zr           8.5504896290      10.0448409775      10.6706267824 
Zr           8.5549983474      10.0732514077      16.0505350553 
Zr          12.2372352801       2.9391617757       2.6832563253 
Zr          12.2654845630       3.0849537674       7.9766852764 
Zr          12.2086750935       2.9771641784      13.2897674215 
Zr          12.2900868061       6.5846533840       4.0872774463 
Zr          12.3273701614       6.5273578758       9.3651087691 
Zr          12.3233580785       6.5197843860      14.6640298782 
Zr          12.2735471760      10.0054997703       5.3414833949 
Zr          12.1990710656      10.0321583214      10.6527018830 
Zr          12.1899947258      10.1185947283      15.9870045494 
Zr           2.8923746450       0.4669253044       3.9669639521 
Zr           2.7621597631       0.5135284873       9.2547112570 
Zr           2.8020115724       0.4370611292      14.6200247746 
Zr           2.8752362538       3.9890030464       5.3465669511 
Zr           2.8383020046       4.1116888083      10.6782838257 
Zr           2.7781958404       4.0940006994      15.9289307960 
Zr           2.8959607494       7.5904492557       6.6866527718 
Zr           2.8895856753       7.5708585115      12.0267822995 
Zr           2.7943897787       7.5409246744      17.2383744419 
Zr           6.5593678468       0.4664857733       3.9205860238 
Zr           6.5640168110       0.5767881554       9.2665552179 
Zr           6.6002727022       0.4840364946      14.7031284018 
Zr           6.5492745188       4.0562400274       5.3752590885 
Zr           6.6759350597       4.0457503745      10.6298164350 
Zr           6.5336279874       4.0820163244      15.9361143452 
Zr           6.6366984176       7.6012679326       6.7130322646 
Zr           6.6612406712       7.5279345718      11.9901784831 
Zr           6.6124800586       7.5825350451      17.2261098642 
Zr          10.2952931518       0.5445572495       3.9938495122 
Zr          10.3718875708       0.5923380453       9.3019712486 
Zr          10.4267697418       0.4653153836      14.6502428988 
Zr          10.3224179036       4.1086448113       5.2991716703 
Zr          10.2997059885       4.0669243657      10.6769191770 
Zr          10.3576953705       4.0950690550      15.9062009635 
Zr          10.3346626641       7.5015958114       6.6674751569 
Zr          10.3520567900       7.5060845472      11.9354274564 
Zr          10.3720448073       7.5591602906      17.3824801764 
Zr          14.1122630332       0.5374813674       4.0467985813 
Zr          14.1546805363       0.5097422237       9.3790387414 
Zr          14.2046229430       0.4932174832      14.6636827537 
Zr          14.1126761682       4.0891605381       5.2510203918 
Zr          14.0693090463       4.0003945308      10.6542563596 
Zr          14.0644899490       4.0111690036      15.9853136019 
Zr          14.1468947693       7.6520847181       6.6448552323 
Zr          14.0788350454       7.6148687588      11.9388284289 
Zr          14.1796972273       7.5346161226      17.3583611149 
Si           2.7965205001       1.4349942893       1.3482657582 
Si           2.7933668306       1.4668665728       6.6572617500 
Si           2.7664677045       1.4451905687      12.0831403874 
Si           2.7944920409       4.9845159172       2.8019421435 
Si           2.8617308407       5.0892512442       8.0503576575 
Si           2.7880987284       5.0587920599      13.4484193126 
Si           2.7653228981       8.5107795564       4.0411938319 
Si           2.8723698878       8.5170547783       9.4598679462 
Si           2.8468212484       8.6086384574      14.7783222072 
Si           6.5870326891       1.4235246191       1.3534975671 
Si           6.5717216649       1.4953462836       6.6508628877 
Si           6.6203695330       1.4358616822      12.1091905498 
Si           6.6746939020       5.0352783056       2.7340762371 
Si           6.5177468883       5.0049431817       8.0614586795 
Si           6.5376057518       4.9733454021      13.4211459695 
Si           6.6633881709       8.5436685056       4.1186447732 
Si           6.6035694419       8.4743656479       9.3734687392 
Si           6.5298843915       8.5296792202      14.6891611370 
Si          10.3886907967       1.4123241845       1.4104950337 
Si          10.2955472991       1.4769953211       6.7627997493 
Si          10.3799890067       1.4394214658      11.9918204339 
Si          10.3587761741       5.0659606390       2.6732720885 
Si          10.3483609999       5.0717089495       8.1213950668 
Si          10.3589745730       4.9598222963      13.4452701074 
Si          10.3359961681       8.6218429140       4.0876175156 
Si          10.3118671901       8.5546131401       9.4606611670 
Si          10.3023894175       8.5025407320      14.7438815084 
Si          14.0661950354       1.4482918191       1.3965673778 
Si          14.1887405424       1.5476612169       6.7211965731 
Si          14.1303385355       1.4380344780      11.9915566850 
Si          14.1968243748       5.0301135833       2.7872399527 
Si          14.2152578110       5.0133013092       8.0630277182 
Si          14.2095644411       4.9898820253      13.3820794879 
Si          14.1962404130       8.5893611657       4.0425250063 
Si          14.1273278585       8.5506381650       9.4816033241 
Si          14.1866988888       8.6093860021      14.7192472011 
Si           0.9702805126       2.1108838553       5.2356188293 
Si           1.0131416568       2.0789337732      10.5974186837 
Si           0.8980851533       2.0569976403      15.8543805195 
Si           0.9072416260       5.5298746768       6.6609997545 
Si           0.9072566651       5.5549195436      11.9997510758 
Si           0.9634159587       5.6227716562      17.3153831539 
Si           0.8920393895       9.0437368457       7.9203583606 
Si           0.8953026781       9.1218897344      13.3294394519 
Si           0.9200012128       9.1562161549      18.5398350513 
Si           4.7332713663       2.0412931863       5.3422865597 
Si           4.7075984509       2.0081136085      10.6646051974 
Si           4.7036378694       2.0105516699      15.9924032100 
Si           4.6831079157       5.5499247700       6.6742023474 
Si           4.7770527747       5.6051484073      11.8973987265 
Si           4.7812791494       5.5365543667      17.2743338137 
Si           4.7862392669       9.1304826013       7.9318168240 
Si           4.7800335788       9.0652533006      13.2866212052 
Si           4.7625089653       9.1449938867      18.6397587477 
Si           8.4264005586       2.0429532307       5.3234390135 
Si           8.4729887470       2.0970025017      10.5347563866 
Si           8.4584629513       2.0687091171      15.9911840219 
Si           8.4603965124       5.5174468567       6.6573550522 
Si           8.4797684790       5.5042594182      11.9721031549 
Si           8.5419875023       5.5858515685      17.3073046579 
Si           8.4691032234       9.0260906026       7.9203889337 
Si           8.4621698749       9.1144009067      13.3444880233 
Si           8.5525621432       9.0811413262      18.6240722492 
Si          12.2335460676       1.9664125689       5.2454463724 
Si          12.3135221534       2.0680617322      10.6344042915 
Si          12.2137414480       1.9731039901      15.9023972462 
Si          12.2555488859       5.6216683498       6.5402150183 
Si          12.2056179404       5.5283671731      11.9793833261 
Si          12.2540490097       5.5051845694      17.3004992756 
Si          12.2547516728       9.0522944775       7.8785325494 
Si          12.2874898786       9.1557938133      13.3147119110 
Si          12.2047424507       9.1538711315      18.5541430825 
K_POINTS automatic
5 6 5 0 0 0
CELL_PARAMETERS angstrom
     15.0778000000       0.0000000000       0.0000000000
     -0.0000000000      10.5907642599       4.0131791996
      0.0000000000       0.0000000000      15.9811200000
