num_bands		=  104
num_wann		=  104
exclude_bands = 105 - 260

num_iter		=  0

spinors			= .false.
use_ws_distance		= .true.
spin = up
write_u_matrices = .true.
#restart			= plot

### POSTW90
dos			= .false.
smr_fixed_en_width	= 0.2721
geninterp		= .true.
geninterp_alsofirstder	= .true.


## Band structure
bands_plot		= .true.
bands_num_points	= 100
begin kpoint_path
G 0.00 0.00 0.00   X 0.50 0.00 0.00
X 0.50 0.00 0.00   S 0.50 0.50 0.00
S 0.50 0.50 0.00   Y 0.00 0.50 0.00
Y 0.00 0.50 0.00   G 0.00 0.00 0.00
G 0.00 0.00 0.00   Z 0.00 0.00 0.50
#Z 0.00 0.00 0.50   U 0.50 0.00 0.50
#U 0.50 0.00 0.50   R 0.50 0.50 0.50
#R 0.50 0.50 0.50   T 0.00 0.50 0.50
#T 0.00 0.50 0.50   Z 0.00 0.00 0.50
#X 0.50 0.00 0.00   U 0.50 0.00 0.50
#S 0.50 0.50 0.00   R 0.50 0.50 0.50
end kpoint_path

guiding_centres		= .true.

mp_grid			= 2 2 2 

begin kpoints
  0.00000000  0.00000000  0.00000000
  0.00000000  0.00000000  0.50000000
  0.00000000  0.50000000  0.00000000
  0.00000000  0.50000000  0.50000000
  0.50000000  0.00000000  0.00000000
  0.50000000  0.00000000  0.50000000
  0.50000000  0.50000000  0.00000000
  0.50000000  0.50000000  0.50000000
end kpoints

begin atoms_frac
Pb   0.00000000   0.00000000   0.50000000
Pb   0.50000000   0.50000000   0.50000000
Pb  -0.00000000  -0.00000000   0.00000000
Pb   0.50000000   0.50000000   0.00000000
Cs   0.53100000   0.00702000   0.25000000
Cs   0.96900000   0.50702000   0.75000000
Cs   0.46900000   0.99298000   0.75000000
Cs   0.03100000   0.49298000   0.25000000
Br   0.29347000   0.20607000   0.47611000
Br   0.20653000   0.70607000   0.52389000
Br   0.70653000   0.79393000   0.97611000
Br   0.79347000   0.29393000   0.02389000
Br   0.70653000   0.79393000   0.52389000
Br   0.79347000   0.29393000   0.47611000
Br   0.29347000   0.20607000   0.02389000
Br   0.20653000   0.70607000   0.97611000
Br   0.00370000   0.04550000   0.75000000
Br   0.49630000   0.54550000   0.25000000
Br   0.99630000   0.95450000   0.25000000
Br   0.50370000   0.45450000   0.75000000
end atoms_frac


begin projections
Cs:l=0;l=1
Pb:l=2;l=1;l=0:r=1 
Pb: l=0:r=2
Br:l=0;l=1 
end projections

begin unit_cell_cart
bohr
    15.57890217091437      0.00000000000000      0.00000000000000
     0.00000000000000     15.49235271440929      0.00000000000000
     0.00000000000000      0.00000000000000     22.17612504438346
end unit_cell_cart
