 &control
    calculation = 'nscf'
    restart_mode='from_scratch',
    prefix='perov',
    pseudo_dir = '/scratch/snx3000/gcistaro/data/PSEUDO/pseudo_mix'
    outdir='./out'
    verbosity = "high" 
 /
&SYSTEM
  ibrav = 0
  nat = 20
  ntyp = 3
  ecutwfc = 80
  nbnd = 260
  nspin = 2
  tot_magnetization = 0.d0
/
 &electrons
    diagonalization='davidson'
    mixing_mode = 'plain'
    mixing_beta = 0.7
    conv_thr =  1.0d-8
 /
 &ions
 /
 &cell
 /

ATOMIC_SPECIES
   Pb  207.2000000000  Pb.upf
   Cs  132.9050000000  Cs.upf
   Br   79.9040000000  Br.upf

ATOMIC_POSITIONS crystal
Pb   0.00000000   0.00000000   0.50000000
Pb   0.50000000   0.50000000   0.50000000
Pb  -0.00000000  -0.00000000   0.00000000
Pb   0.50000000   0.50000000   0.00000000
Cs   0.53100000   0.00702000   0.25000000
Cs   0.96900000   0.50702000   0.75000000
Cs   0.46900000   0.99298000   0.75000000
Cs   0.03100000   0.49298000   0.25000000
Br   0.29347000   0.20607000   0.47611000
Br   0.20653000   0.70607000   0.52389000
Br   0.70653000   0.79393000   0.97611000
Br   0.79347000   0.29393000   0.02389000
Br   0.70653000   0.79393000   0.52389000
Br   0.79347000   0.29393000   0.47611000
Br   0.29347000   0.20607000   0.02389000
Br   0.20653000   0.70607000   0.97611000
Br   0.00370000   0.04550000   0.75000000
Br   0.49630000   0.54550000   0.25000000
Br   0.99630000   0.95450000   0.25000000
Br   0.50370000   0.45450000   0.75000000

CELL_PARAMETERS
    15.57890217091437      0.00000000000000      0.00000000000000
     0.00000000000000     15.49235271440929      0.00000000000000
     0.00000000000000      0.00000000000000     22.17612504438346

K_POINTS crystal
8
  0.00000000  0.00000000  0.00000000  1.250000e-01
  0.00000000  0.00000000  0.50000000  1.250000e-01
  0.00000000  0.50000000  0.00000000  1.250000e-01
  0.00000000  0.50000000  0.50000000  1.250000e-01
  0.50000000  0.00000000  0.00000000  1.250000e-01
  0.50000000  0.00000000  0.50000000  1.250000e-01
  0.50000000  0.50000000  0.00000000  1.250000e-01
  0.50000000  0.50000000  0.50000000  1.250000e-01
