&CONTROL
  calculation = 'scf'
  max_seconds = 13360
  outdir = './out/'
  prefix = 'aiid'
  pseudo_dir = './pseudo/'
  restart_mode = 'from_scratch'
  verbosity = 'high'
/
&SYSTEM
  degauss =   2.0000000000d-02
  ecutrho =   3.6000000000d+02
  ecutwfc =   4.5000000000d+01
  ibrav = 0
  nat = 96
  ntyp = 2
  occupations = 'smearing'
  smearing = 'cold'
/
&ELECTRONS
  conv_thr =   9.6000000000d-07
  electron_maxstep = 100
  mixing_beta =   3.0000000000d-01
/
ATOMIC_SPECIES
Cs     132.9054519 Cs_pbe_v1.uspp.F.UPF
I      126.90447 I_pbe_v1.uspp.F.UPF
ATOMIC_POSITIONS angstrom
Cs          11.1167606754      15.6002032248       5.5218629095 
Cs          -0.0116220708       0.0759459229       5.5174132680 
Cs          22.1065451055       0.0563550662      11.1015412685 
Cs          -2.8066506742       3.9866946476      -2.7844123347 
Cs          -2.7273575892       3.9022452786       2.7037389881 
Cs          19.3193795667       3.8899148663       8.2810618118 
Cs          -5.4632356771       7.8250316253      -5.5181423827 
Cs          -5.4712073699       7.8712224983       0.0186160036 
Cs          16.6409198698       7.7663998596       5.5759079027 
Cs          -8.2504466934      11.7095807895      -8.2756851266 
Cs          13.8484978462      11.6975408835      -2.7107968800 
Cs          -8.2514645141      11.7956162678       2.8026886129 
Cs           5.5390399776       0.0329647711      16.5462405293 
Cs          -5.5526323670      15.6364716203      -5.6117969794 
Cs           5.4611055864       0.0024231181      11.0940990553 
Cs           2.7235858312       3.9109057815      -2.7048937243 
Cs           2.8435242608       3.9443689830       2.7851149245 
Cs           2.7532567655       3.9867601777       8.3453591277 
Cs          -0.0590806902       7.8318281035      -5.4858286723 
Cs           0.0115526536       7.9105059309      -0.0215458319 
Cs           0.0235457332       7.9081323725       5.5197286818 
Cs          -2.8190835728      11.7026464448       8.2696911412 
Cs          -2.8431318218      11.7333504840      -2.7963336683 
Cs          -2.7975192342      11.7597772981       2.6952482406 
Cs          11.0094453107       0.0028740160      16.5804611122 
Cs          -0.0117425460      15.6502915631      -5.4627392804 
Cs          -0.0018921871      15.5963935005      -0.0342505695 
Cs           8.3206095186       3.8927070966      13.7739108450 
Cs           8.3804995587       3.8920247842       2.7969876771 
Cs           8.3817073741       3.9042253353       8.3416275006 
Cs           5.5679043483       7.8746478059      11.0163343737 
Cs           5.5599480045       7.8855296945       0.0580458701 
Cs           5.5118647032       7.8651108702       5.6081012493 
Cs           2.8349448293      11.7823325844      -8.2747420724 
Cs           2.7590485512      11.7771935676      -2.8448419096 
Cs           2.8485319751      11.7408231691       2.7796503616 
Cs          16.5921342406       0.0629553383      -0.0413261945 
Cs           5.5113920385      15.6517804232      -5.6126001189 
Cs           5.4846362912      15.6135085305      -0.0180149146 
Cs          13.8319689307       3.9751407122      -2.7175148483 
Cs          13.9228446751       3.9450664609       2.7553948660 
Cs          13.8564118848       3.9795648522       8.2600118833 
Cs          11.0304734219       7.7904493553      11.0338299021 
Cs          11.0732533553       7.8021899168      -0.0729985878 
Cs          11.0351321835       7.7728642203       5.5140160949 
Cs           8.2959248732      11.8290204601      -8.2952663692 
Cs           8.3558774136      11.8044951962      -2.7318205592 
Cs           8.2348769999      11.7741511176       2.7522877639 
I            2.7619166085       0.0163166751       2.8477700053 
I           -8.3525757072      15.6483060758      -2.7055467467 
I            2.7225562677       0.0449342867      13.8029744622 
I           -0.0664023312       3.9412113562       0.0375842470 
I            0.0701944759       3.9524160271       5.5548825696 
I           -0.0459849479       3.8730095174      11.1277474751 
I           -2.7913602385       7.8762164865      -2.7051765691 
I           -2.7956225313       7.8671439342       2.8381153679 
I           -2.6991088640       7.8146548577       8.2778198520 
I           -5.6053305344      11.7531154742      -5.5854411071 
I           -5.5417671721      11.7197037981      -0.0733811971 
I           -5.6080834755      11.7109142622       5.5485363620 
I           -2.8375602462      15.6323075842      -8.2873374663 
I            8.2324257595       0.0128291155       8.3264455027 
I            8.2824562539       0.0170210501      13.7759578824 
I            5.6107974504       3.9426613067      -0.0263929834 
I            5.5392502052       3.8410390053       5.5642943874 
I            5.5504987719       3.8933568015      11.1550288641 
I            2.6964591506       7.8286184714      -2.7385437671 
I            2.6988945001       7.8631687138       2.7467658285 
I            2.7457157055       7.7624279433       8.3350003164 
I            0.0113821212      11.6725643810      -5.5334099143 
I           -0.0360227467      11.6815383666      -0.0144152239 
I            0.0591217545      11.7025642324       5.5171278005 
I           13.9089905593       0.0520548534       2.7810059736 
I            2.8231562549      15.6319678035      -2.7228207933 
I            2.7025057111      15.6307360671       2.7492299810 
I           11.0286815252       3.9697405718      -0.0325818181 
I           11.0543622269       3.8642606049       5.4851841021 
I           11.1529030144       3.9487668788      11.0781303965 
I            8.3837531898       7.8225958716      -2.7973931914 
I            8.2298355545       7.8345285853       2.7764259419 
I            8.2512233396       7.8792520139       8.2782834707 
I            5.4979849958      11.7431563708      -5.4719647722 
I            5.5710329924      11.8245237658       0.0092913791 
I            5.5281301386      11.8109434127       5.5919816987 
I           19.3264641749       0.0468758158       2.7527142789 
I            8.3629084588      15.6205352844      -2.8050389026 
I            8.2623785913      15.6442516968       2.7100437695 
I           16.6973893791       3.9311399230       0.0089561838 
I           16.6416376809       3.9826589674       5.4996582596 
I           16.6344984948       3.8938535055      11.0044512509 
I           13.8542955608       7.8051113996      -2.8441577001 
I           13.8334030477       7.8574204280       2.6949213465 
I           13.8350737114       7.8346780656       8.2308363245 
I           11.1429668689      11.7321548279      -5.5842922647 
I           11.0865227276      11.8219031814       0.0373212511 
I           11.0275305945      11.7840577752       5.5911633735 
K_POINTS automatic
4 5 5 0 0 0
CELL_PARAMETERS angstrom
     22.1588400000       0.0000000000       0.0000000000
    -11.0794200000      15.6686660272     -11.0794200000
      0.0000000000       0.0000000000      16.6191300000
