&control
calculation='scf',
restart_mode='from_scratch',
pseudo_dir = './',
outdir='./',
prefix = 'scf_'
/
&system
ibrav=0, celldm(1)=1, ecutwfc=40, ecutrho = 300,
occupations = 'smearing', smearing = 'gauss', degauss = 0.002, nosym=.false.,
nat=1501 ntyp=3
/
&electrons
conv_thr =  1.0d-8,
mixing_beta = 0.7,
electron_maxstep = 10
/
ATOMIC_SPECIES
Co 0.0 pp.UPF
O 0.0 pp.UPF
Li 0.0 pp.UPF
CELL_PARAMETERS
       31.91747424        0.00000000        0.00000000
        0.00000000       55.28268704        0.00000000
        0.00000000        0.00000000       53.10735122
ATOMIC_POSITIONS (crystal)
Co          0.16666667         0.16666667         0.25000000
Co          0.16666667         0.16666667         0.75000000
Co          0.08333333         0.25000000         0.25000000
Co          0.08333333         0.25000000         0.75000000
Co          0.00000000         0.33333333         0.25000000
Co          0.00000000         0.33333333         0.75000000
Co          0.91666667         0.41666667         0.25000000
Co          0.91666667         0.41666667         0.75000000
Co          0.83333333         0.50000000         0.25000000
Co          0.83333333         0.50000000         0.75000000
Co          0.75000000         0.58333333         0.25000000
Co          0.75000000         0.58333333         0.75000000
Co          0.66666667         0.66666667         0.25000000
Co          0.66666667         0.66666667         0.75000000
Co          0.58333333         0.75000000         0.25000000
Co          0.58333333         0.75000000         0.75000000
Co          0.50000000         0.83333333         0.25000000
Co          0.50000000         0.83333333         0.75000000
Co          0.41666667         0.91666667         0.25000000
Co          0.41666667         0.91666667         0.75000000
Co          0.33333333         0.00000000         0.25000000
Co          0.33333333         0.00000000         0.75000000
Co          0.25000000         0.08333333         0.25000000
Co          0.25000000         0.08333333         0.75000000
Co          0.33333333         0.16666667         0.25000000
Co          0.33333333         0.16666667         0.75000000
Co          0.25000000         0.25000000         0.25000000
Co          0.25000000         0.25000000         0.75000000
Co          0.16666667         0.33333333         0.25000000
Co          0.16666667         0.33333333         0.75000000
Co          0.08333333         0.41666667         0.25000000
Co          0.08333333         0.41666667         0.75000000
Co          0.00000000         0.50000000         0.25000000
Co          0.00000000         0.50000000         0.75000000
Co          0.91666667         0.58333333         0.25000000
Co          0.91666667         0.58333333         0.75000000
Co          0.83333333         0.66666667         0.25000000
Co          0.83333333         0.66666667         0.75000000
Co          0.75000000         0.75000000         0.25000000
Co          0.75000000         0.75000000         0.75000000
Co          0.66666667         0.83333333         0.25000000
Co          0.66666667         0.83333333         0.75000000
Co          0.58333333         0.91666667         0.25000000
Co          0.58333333         0.91666667         0.75000000
Co          0.50000000         0.00000000         0.25000000
Co          0.50000000         0.00000000         0.75000000
Co          0.41666667         0.08333333         0.25000000
Co          0.41666667         0.08333333         0.75000000
Co          0.50000000         0.16666667         0.25000000
Co          0.50000000         0.16666667         0.75000000
Co          0.41666667         0.25000000         0.25000000
Co          0.41666667         0.25000000         0.75000000
Co          0.33333333         0.33333333         0.25000000
Co          0.33333333         0.33333333         0.75000000
Co          0.25000000         0.41666667         0.25000000
Co          0.25000000         0.41666667         0.75000000
Co          0.16666667         0.50000000         0.25000000
Co          0.16666667         0.50000000         0.75000000
Co          0.08333333         0.58333333         0.25000000
Co          0.08333333         0.58333333         0.75000000
Co          0.00000000         0.66666667         0.25000000
Co          0.00000000         0.66666667         0.75000000
Co          0.91666667         0.75000000         0.25000000
Co          0.91666667         0.75000000         0.75000000
Co          0.83333333         0.83333333         0.25000000
Co          0.83333333         0.83333333         0.75000000
Co          0.75000000         0.91666667         0.25000000
Co          0.75000000         0.91666667         0.75000000
Co          0.66666667         0.00000000         0.25000000
Co          0.66666667         0.00000000         0.75000000
Co          0.58333333         0.08333333         0.25000000
Co          0.58333333         0.08333333         0.75000000
Co          0.66666667         0.16666667         0.25000000
Co          0.66666667         0.16666667         0.75000000
Co          0.58333333         0.25000000         0.25000000
Co          0.58333333         0.25000000         0.75000000
Co          0.50000000         0.33333333         0.25000000
Co          0.50000000         0.33333333         0.75000000
Co          0.41666667         0.41666667         0.25000000
Co          0.41666667         0.41666667         0.75000000
Co          0.33333333         0.50000000         0.25000000
Co          0.33333333         0.50000000         0.75000000
Co          0.25000000         0.58333333         0.25000000
Co          0.25000000         0.58333333         0.75000000
Co          0.16666667         0.66666667         0.25000000
Co          0.16666667         0.66666667         0.75000000
Co          0.08333333         0.75000000         0.25000000
Co          0.08333333         0.75000000         0.75000000
Co          0.00000000         0.83333333         0.25000000
Co          0.00000000         0.83333333         0.75000000
Co          0.91666667         0.91666667         0.25000000
Co          0.91666667         0.91666667         0.75000000
Co          0.83333333         0.00000000         0.25000000
Co          0.83333333         0.00000000         0.75000000
Co          0.75000000         0.08333333         0.25000000
Co          0.75000000         0.08333333         0.75000000
Co          0.83333333         0.16666667         0.25000000
Co          0.83333333         0.16666667         0.75000000
Co          0.75000000         0.25000000         0.25000000
Co          0.75000000         0.25000000         0.75000000
Co          0.66666667         0.33333333         0.25000000
Co          0.66666667         0.33333333         0.75000000
Co          0.58333333         0.41666667         0.25000000
Co          0.58333333         0.41666667         0.75000000
Co          0.50000000         0.50000000         0.25000000
Co          0.50000000         0.50000000         0.75000000
Co          0.41666667         0.58333333         0.25000000
Co          0.41666667         0.58333333         0.75000000
Co          0.33333333         0.66666667         0.25000000
Co          0.33333333         0.66666667         0.75000000
Co          0.25000000         0.75000000         0.25000000
Co          0.25000000         0.75000000         0.75000000
Co          0.16666667         0.83333333         0.25000000
Co          0.16666667         0.83333333         0.75000000
Co          0.08333333         0.91666667         0.25000000
Co          0.08333333         0.91666667         0.75000000
Co          0.00000000         0.00000000         0.25000000
Co          0.00000000         0.00000000         0.75000000
Co          0.91666667         0.08333333         0.25000000
Co          0.91666667         0.08333333         0.75000000
Co          0.00000000         0.16666667         0.25000000
Co          0.00000000         0.16666667         0.75000000
Co          0.91666667         0.25000000         0.25000000
Co          0.91666667         0.25000000         0.75000000
Co          0.83333333         0.33333333         0.25000000
Co          0.83333333         0.33333333         0.75000000
Co          0.75000000         0.41666667         0.25000000
Co          0.75000000         0.41666667         0.75000000
Co          0.66666667         0.50000000         0.25000000
Co          0.66666667         0.50000000         0.75000000
Co          0.58333333         0.58333333         0.25000000
Co          0.58333333         0.58333333         0.75000000
Co          0.50000000         0.66666667         0.25000000
Co          0.50000000         0.66666667         0.75000000
Co          0.41666667         0.75000000         0.25000000
Co          0.41666667         0.75000000         0.75000000
Co          0.33333333         0.83333333         0.25000000
Co          0.33333333         0.83333333         0.75000000
Co          0.25000000         0.91666667         0.25000000
Co          0.25000000         0.91666667         0.75000000
Co          0.16666667         0.00000000         0.25000000
Co          0.16666667         0.00000000         0.75000000
Co          0.08333333         0.08333333         0.25000000
Co          0.08333333         0.08333333         0.75000000
Co          0.25000000         0.19444444         0.41666666
Co          0.25000000         0.19444444         0.91666667
Co          0.16666667         0.27777778         0.41666666
Co          0.16666667         0.27777778         0.91666667
Co          0.08333333         0.36111111         0.41666666
Co          0.08333333         0.36111111         0.91666667
Co          0.00000000         0.44444444         0.41666666
Co          0.00000000         0.44444444         0.91666667
Co          0.91666667         0.52777778         0.41666666
Co          0.91666667         0.52777778         0.91666667
Co          0.83333333         0.61111111         0.41666666
Co          0.83333333         0.61111111         0.91666667
Co          0.75000000         0.69444444         0.41666666
Co          0.75000000         0.69444444         0.91666667
Co          0.66666667         0.77777778         0.41666666
Co          0.66666667         0.77777778         0.91666667
Co          0.58333333         0.86111111         0.41666666
Co          0.58333333         0.86111111         0.91666667
Co          0.50000000         0.94444444         0.41666666
Co          0.50000000         0.94444444         0.91666667
Co          0.41666667         0.02777778         0.41666666
Co          0.41666667         0.02777778         0.91666667
Co          0.33333333         0.11111111         0.41666666
Co          0.33333333         0.11111111         0.91666667
Co          0.41666667         0.19444444         0.41666666
Co          0.41666667         0.19444444         0.91666667
Co          0.33333333         0.27777778         0.41666666
Co          0.33333333         0.27777778         0.91666667
Co          0.25000000         0.36111111         0.41666666
Co          0.25000000         0.36111111         0.91666667
Co          0.16666667         0.44444444         0.41666666
Co          0.16666667         0.44444444         0.91666667
Co          0.08333333         0.52777778         0.41666666
Co          0.08333333         0.52777778         0.91666667
Co          0.00000000         0.61111111         0.41666666
Co          0.00000000         0.61111111         0.91666667
Co          0.91666667         0.69444444         0.41666666
Co          0.91666667         0.69444444         0.91666667
Co          0.83333333         0.77777778         0.41666666
Co          0.83333333         0.77777778         0.91666667
Co          0.75000000         0.86111111         0.41666666
Co          0.75000000         0.86111111         0.91666667
Co          0.66666667         0.94444444         0.41666666
Co          0.66666667         0.94444444         0.91666667
Co          0.58333333         0.02777778         0.41666666
Co          0.58333333         0.02777778         0.91666667
Co          0.50000000         0.11111111         0.41666666
Co          0.50000000         0.11111111         0.91666667
Co          0.58333333         0.19444444         0.41666666
Co          0.58333333         0.19444444         0.91666667
Co          0.50000000         0.27777778         0.41666666
Co          0.50000000         0.27777778         0.91666667
Co          0.41666667         0.36111111         0.41666666
Co          0.41666667         0.36111111         0.91666667
Co          0.33333333         0.44444444         0.41666666
Co          0.33333333         0.44444444         0.91666667
Co          0.25000000         0.52777778         0.41666666
Co          0.25000000         0.52777778         0.91666667
Co          0.16666667         0.61111111         0.41666666
Co          0.16666667         0.61111111         0.91666667
Co          0.08333333         0.69444444         0.41666666
Co          0.08333333         0.69444444         0.91666667
Co          0.00000000         0.77777778         0.41666666
Co          0.00000000         0.77777778         0.91666667
Co          0.91666667         0.86111111         0.41666666
Co          0.91666667         0.86111111         0.91666667
Co          0.83333333         0.94444444         0.41666666
Co          0.83333333         0.94444444         0.91666667
Co          0.75000000         0.02777778         0.41666666
Co          0.75000000         0.02777778         0.91666667
Co          0.66666667         0.11111111         0.41666666
Co          0.66666667         0.11111111         0.91666667
Co          0.75000000         0.19444444         0.41666666
Co          0.75000000         0.19444444         0.91666667
Co          0.66666667         0.27777778         0.41666666
Co          0.66666667         0.27777778         0.91666667
Co          0.58333333         0.36111111         0.41666666
Co          0.58333333         0.36111111         0.91666667
Co          0.50000000         0.44444444         0.41666666
Co          0.50000000         0.44444444         0.91666667
Co          0.41666667         0.52777778         0.41666666
Co          0.41666667         0.52777778         0.91666667
Co          0.33333333         0.61111111         0.41666666
Co          0.33333333         0.61111111         0.91666667
Co          0.25000000         0.69444444         0.41666666
Co          0.25000000         0.69444444         0.91666667
Co          0.16666667         0.77777778         0.41666666
Co          0.16666667         0.77777778         0.91666667
Co          0.08333333         0.86111111         0.41666666
Co          0.08333333         0.86111111         0.91666667
Co          0.00000000         0.94444444         0.41666666
Co          0.00000000         0.94444444         0.91666667
Co          0.91666667         0.02777778         0.41666666
Co          0.91666667         0.02777778         0.91666667
Co          0.83333333         0.11111111         0.41666666
Co          0.83333333         0.11111111         0.91666667
Co          0.91666667         0.19444444         0.41666666
Co          0.91666667         0.19444444         0.91666667
Co          0.83333333         0.27777778         0.41666666
Co          0.83333333         0.27777778         0.91666667
Co          0.75000000         0.36111111         0.41666666
Co          0.75000000         0.36111111         0.91666667
Co          0.66666667         0.44444444         0.41666666
Co          0.66666667         0.44444444         0.91666667
Co          0.58333333         0.52777778         0.41666666
Co          0.58333333         0.52777778         0.91666667
Co          0.50000000         0.61111111         0.41666666
Co          0.50000000         0.61111111         0.91666667
Co          0.41666667         0.69444444         0.41666666
Co          0.41666667         0.69444444         0.91666667
Co          0.33333333         0.77777778         0.41666666
Co          0.33333333         0.77777778         0.91666667
Co          0.25000000         0.86111111         0.41666666
Co          0.25000000         0.86111111         0.91666667
Co          0.16666667         0.94444444         0.41666666
Co          0.16666667         0.94444444         0.91666667
Co          0.08333333         0.02777778         0.41666666
Co          0.08333333         0.02777778         0.91666667
Co          0.00000000         0.11111111         0.41666666
Co          0.00000000         0.11111111         0.91666667
Co          0.08333333         0.19444444         0.41666666
Co          0.08333333         0.19444444         0.91666667
Co          0.00000000         0.27777778         0.41666666
Co          0.00000000         0.27777778         0.91666667
Co          0.91666667         0.36111111         0.41666666
Co          0.91666667         0.36111111         0.91666667
Co          0.83333333         0.44444444         0.41666666
Co          0.83333333         0.44444444         0.91666667
Co          0.75000000         0.52777778         0.41666666
Co          0.75000000         0.52777778         0.91666667
Co          0.66666667         0.61111111         0.41666666
Co          0.66666667         0.61111111         0.91666667
Co          0.58333333         0.69444444         0.41666666
Co          0.58333333         0.69444444         0.91666667
Co          0.50000000         0.77777778         0.41666666
Co          0.50000000         0.77777778         0.91666667
Co          0.41666667         0.86111111         0.41666666
Co          0.41666667         0.86111111         0.91666667
Co          0.33333333         0.94444444         0.41666666
Co          0.33333333         0.94444444         0.91666667
Co          0.25000000         0.02777778         0.41666666
Co          0.25000000         0.02777778         0.91666667
Co          0.16666667         0.11111111         0.41666666
Co          0.16666667         0.11111111         0.91666667
Co          0.16666667         0.22222222         0.08333333
Co          0.16666667         0.22222222         0.58333333
Co          0.08333333         0.30555556         0.08333333
Co          0.08333333         0.30555556         0.58333333
Co          1.00000000         0.38888889         0.08333333
Co          1.00000000         0.38888889         0.58333333
Co          0.91666667         0.47222222         0.08333333
Co          0.91666667         0.47222222         0.58333333
Co          0.83333333         0.55555556         0.08333333
Co          0.83333333         0.55555556         0.58333333
Co          0.75000000         0.63888889         0.08333333
Co          0.75000000         0.63888889         0.58333333
Co          0.66666667         0.72222222         0.08333333
Co          0.66666667         0.72222222         0.58333333
Co          0.58333333         0.80555556         0.08333333
Co          0.58333333         0.80555556         0.58333333
Co          0.50000000         0.88888889         0.08333333
Co          0.50000000         0.88888889         0.58333333
Co          0.41666667         0.97222222         0.08333333
Co          0.41666667         0.97222222         0.58333333
Co          0.33333333         0.05555556         0.08333333
Co          0.33333333         0.05555556         0.58333333
Co          0.25000000         0.13888889         0.08333333
Co          0.25000000         0.13888889         0.58333333
Co          0.33333333         0.22222222         0.08333333
Co          0.33333333         0.22222222         0.58333333
Co          0.25000000         0.30555556         0.08333333
Co          0.25000000         0.30555556         0.58333333
Co          0.16666667         0.38888889         0.08333333
Co          0.16666667         0.38888889         0.58333333
Co          0.08333333         0.47222222         0.08333333
Co          0.08333333         0.47222222         0.58333333
Co          1.00000000         0.55555556         0.08333333
Co          1.00000000         0.55555556         0.58333333
Co          0.91666667         0.63888889         0.08333333
Co          0.91666667         0.63888889         0.58333333
Co          0.83333333         0.72222222         0.08333333
Co          0.83333333         0.72222222         0.58333333
Co          0.75000000         0.80555556         0.08333333
Co          0.75000000         0.80555556         0.58333333
Co          0.66666667         0.88888889         0.08333333
Co          0.66666667         0.88888889         0.58333333
Co          0.58333333         0.97222222         0.08333333
Co          0.58333333         0.97222222         0.58333333
Co          0.50000000         0.05555556         0.08333333
Co          0.50000000         0.05555556         0.58333333
Co          0.41666667         0.13888889         0.08333333
Co          0.41666667         0.13888889         0.58333333
Co          0.50000000         0.22222222         0.08333333
Co          0.50000000         0.22222222         0.58333333
Co          0.41666667         0.30555556         0.08333333
Co          0.41666667         0.30555556         0.58333333
Co          0.33333333         0.38888889         0.08333333
Co          0.33333333         0.38888889         0.58333333
Co          0.25000000         0.47222222         0.08333333
Co          0.25000000         0.47222222         0.58333333
Co          0.16666667         0.55555556         0.08333333
Co          0.16666667         0.55555556         0.58333333
Co          0.08333333         0.63888889         0.08333333
Co          0.08333333         0.63888889         0.58333333
Co          1.00000000         0.72222222         0.08333333
Co          1.00000000         0.72222222         0.58333333
Co          0.91666667         0.80555556         0.08333333
Co          0.91666667         0.80555556         0.58333333
Co          0.83333333         0.88888889         0.08333333
Co          0.83333333         0.88888889         0.58333333
Co          0.75000000         0.97222222         0.08333333
Co          0.75000000         0.97222222         0.58333333
Co          0.66666667         0.05555556         0.08333333
Co          0.66666667         0.05555556         0.58333333
Co          0.58333333         0.13888889         0.08333333
Co          0.58333333         0.13888889         0.58333333
Co          0.66666667         0.22222222         0.08333333
Co          0.66666667         0.22222222         0.58333333
Co          0.58333333         0.30555556         0.08333333
Co          0.58333333         0.30555556         0.58333333
Co          0.50000000         0.38888889         0.08333333
Co          0.50000000         0.38888889         0.58333333
Co          0.41666667         0.47222222         0.08333333
Co          0.41666667         0.47222222         0.58333333
Co          0.33333333         0.55555556         0.08333333
Co          0.33333333         0.55555556         0.58333333
Co          0.25000000         0.63888889         0.08333333
Co          0.25000000         0.63888889         0.58333333
Co          0.16666667         0.72222222         0.08333333
Co          0.16666667         0.72222222         0.58333333
Co          0.08333333         0.80555556         0.08333333
Co          0.08333333         0.80555556         0.58333333
Co          1.00000000         0.88888889         0.08333333
Co          1.00000000         0.88888889         0.58333333
Co          0.91666667         0.97222222         0.08333333
Co          0.91666667         0.97222222         0.58333333
Co          0.83333333         0.05555556         0.08333333
Co          0.83333333         0.05555556         0.58333333
Co          0.75000000         0.13888889         0.08333333
Co          0.75000000         0.13888889         0.58333333
Co          0.83333333         0.22222222         0.08333333
Co          0.83333333         0.22222222         0.58333333
Co          0.75000000         0.30555556         0.08333333
Co          0.75000000         0.30555556         0.58333333
Co          0.66666667         0.38888889         0.08333333
Co          0.66666667         0.38888889         0.58333333
Co          0.58333333         0.47222222         0.08333333
Co          0.58333333         0.47222222         0.58333333
Co          0.50000000         0.55555556         0.08333333
Co          0.50000000         0.55555556         0.58333333
Co          0.41666667         0.63888889         0.08333333
Co          0.41666667         0.63888889         0.58333333
Co          0.33333333         0.72222222         0.08333333
Co          0.33333333         0.72222222         0.58333333
Co          0.25000000         0.80555556         0.08333333
Co          0.25000000         0.80555556         0.58333333
Co          0.16666667         0.88888889         0.08333333
Co          0.16666667         0.88888889         0.58333333
Co          0.08333333         0.97222222         0.08333333
Co          0.08333333         0.97222222         0.58333333
Co          1.00000000         0.05555556         0.08333333
Co          1.00000000         0.05555556         0.58333333
Co          0.91666667         0.13888889         0.08333333
Co          0.91666667         0.13888889         0.58333333
Co          1.00000000         0.22222222         0.08333333
Co          1.00000000         0.22222222         0.58333333
Co          0.91666667         0.30555556         0.08333333
Co          0.91666667         0.30555556         0.58333333
Co          0.83333333         0.38888889         0.08333333
Co          0.83333333         0.38888889         0.58333333
Co          0.75000000         0.47222222         0.08333333
Co          0.75000000         0.47222222         0.58333333
Co          0.66666667         0.55555556         0.08333333
Co          0.66666667         0.55555556         0.58333333
Co          0.58333333         0.63888889         0.08333333
Co          0.58333333         0.63888889         0.58333333
Co          0.50000000         0.72222222         0.08333333
Co          0.50000000         0.72222222         0.58333333
Co          0.41666667         0.80555556         0.08333333
Co          0.41666667         0.80555556         0.58333333
Co          0.33333333         0.88888889         0.08333333
Co          0.33333333         0.88888889         0.58333333
Co          0.25000000         0.97222222         0.08333333
Co          0.25000000         0.97222222         0.58333333
Co          0.16666667         0.05555556         0.08333333
Co          0.16666667         0.05555556         0.58333333
Co          0.08333333         0.13888889         0.08333333
Co          0.08333333         0.13888889         0.58333333
O          0.16666667         0.16666667         0.11985000
O          0.16666667         0.16666667         0.61985000
O          0.08333333         0.25000000         0.11985000
O          0.08333333         0.25000000         0.61985000
O          0.00000000         0.33333333         0.11985000
O          0.00000000         0.33333333         0.61985000
O          0.91666667         0.41666667         0.11985000
O          0.91666667         0.41666667         0.61985000
O          0.83333333         0.50000000         0.11985000
O          0.83333333         0.50000000         0.61985000
O          0.75000000         0.58333333         0.11985000
O          0.75000000         0.58333333         0.61985000
O          0.66666667         0.66666667         0.11985000
O          0.66666667         0.66666667         0.61985000
O          0.58333333         0.75000000         0.11985000
O          0.58333333         0.75000000         0.61985000
O          0.50000000         0.83333333         0.11985000
O          0.50000000         0.83333333         0.61985000
O          0.41666667         0.91666667         0.11985000
O          0.41666667         0.91666667         0.61985000
O          0.33333333         0.00000000         0.11985000
O          0.33333333         0.00000000         0.61985000
O          0.25000000         0.08333333         0.11985000
O          0.25000000         0.08333333         0.61985000
O          0.33333333         0.16666667         0.11985000
O          0.33333333         0.16666667         0.61985000
O          0.25000000         0.25000000         0.11985000
O          0.25000000         0.25000000         0.61985000
O          0.16666667         0.33333333         0.11985000
O          0.16666667         0.33333333         0.61985000
O          0.08333333         0.41666667         0.11985000
O          0.08333333         0.41666667         0.61985000
O          0.00000000         0.50000000         0.11985000
O          0.00000000         0.50000000         0.61985000
O          0.91666667         0.58333333         0.11985000
O          0.91666667         0.58333333         0.61985000
O          0.83333333         0.66666667         0.11985000
O          0.83333333         0.66666667         0.61985000
O          0.75000000         0.75000000         0.11985000
O          0.75000000         0.75000000         0.61985000
O          0.66666667         0.83333333         0.11985000
O          0.66666667         0.83333333         0.61985000
O          0.58333333         0.91666667         0.11985000
O          0.58333333         0.91666667         0.61985000
O          0.50000000         0.00000000         0.11985000
O          0.50000000         0.00000000         0.61985000
O          0.41666667         0.08333333         0.11985000
O          0.41666667         0.08333333         0.61985000
O          0.50000000         0.16666667         0.11985000
O          0.50000000         0.16666667         0.61985000