&CONTROL
  calculation = 'scf'
  outdir = './out/'
  prefix = 'aiida'
  pseudo_dir = './pseudo/'
  restart_mode = 'from_scratch'
  verbosity = 'high'
/
&SYSTEM
  degauss =   2.0000000000d-02
  ecutrho =   3.6000000000d+02
  ecutwfc =   4.5000000000d+01
  ibrav = 0
  nat = 108
  nspin = 2
  ntyp = 2
  occupations = 'smearing'
  smearing = 'cold'
  starting_magnetization(1) =   0.0000000000d+00
  starting_magnetization(2) =   4.1666666667d-01
/
&ELECTRONS
  conv_thr =   1.0800000000d-06
  electron_maxstep = 100
  mixing_beta =   3.5000000000d-01
/
ATOMIC_SPECIES
Si     28.0855 Si.pbe-n-rrkjus_psl.1.0.0.UPF
Zr     91.224 Zr_pbe_v1.uspp.F.UPF
ATOMIC_POSITIONS angstrom
Zr           0.8667962832       3.0015172114       2.7110549537 
Zr           0.9314318707       3.0857447061       7.9767870950 
Zr           0.9804566718       3.0796997579      13.3112137568 
Zr           1.0102950280       6.5648239155       3.9893578394 
Zr           1.0025416493       6.5220565479       9.4010461046 
Zr           0.9746248855       6.6166682169      14.6569314546 
Zr           0.9042160212      10.1482276147       5.3722935819 
Zr           0.9759194456      10.0847236572      10.7651894043 
Zr           1.0055103701      10.0612516925      15.9738041738 
Zr           4.6656754559       3.0601700626       2.6406946707 
Zr           4.7378018913       2.9778538204       7.9530877406 
Zr           4.7531750049       2.9749477134      13.2909535171 
Zr           4.7339955922       6.5576679281       3.9518478174 
Zr           4.7510814448       6.6044583681       9.3959380988 
Zr           4.7682832053       6.5965175139      14.6529777284 
Zr           4.6453856347      10.1014248108       5.3277629256 
Zr           4.6443773721      10.0422547629      10.7165242836 
Zr           4.7643518401      10.0644769759      16.0786467780 
Zr           8.5056764160       2.9927702231       2.7623581480 
Zr           8.5176244080       2.9482792273       8.0335004905 
Zr           8.4097573681       3.0233221470      13.3090165136 
Zr           8.4614953646       6.5272608415       3.9533871257 
Zr           8.4288005789       6.5205900794       9.3012910545 
Zr           8.5220262021       6.5375549541      14.6141284164 
Zr           8.4308326355      10.1287655404       5.3297564760 
Zr           8.5488699653      10.0846622119      10.6505810879 
Zr           8.4189553725      10.1216833500      15.9948487993 
Zr           2.8085562844       0.5750623351       3.9280330830 
Zr           2.8065027086       0.4878775044       9.3746994897 
Zr           2.7919911400       0.5625748290      14.6801170860 
Zr           2.8443328305       4.0717365954       5.3846921748 
Zr           2.7978182297       4.0751432623      10.7062323585 
Zr           2.8885289376       3.9917609352      15.9618814205 
Zr           2.7930294716       7.5111218146       6.6873056678 
Zr           2.8486208578       7.4968836754      11.9653855109 
Zr           2.9048190793       7.5558722909      17.2960487255 
Zr           6.5433877531       0.5569186725       3.9343086292 
Zr           6.5178817621       0.5228555375       9.2910834685 
Zr           6.5324944536       0.4898083025      14.6706799677 
Zr           6.6619988417       3.9997218955       5.2960620933 
Zr           6.5557377575       3.9740559073      10.6419792855 
Zr           6.6295066400       4.0088082261      15.9017321645 
Zr           6.6623305659       7.5770716829       6.6045167036 
Zr           6.6370489468       7.6026128159      11.9145546022 
Zr           6.6579079851       7.5988294325      17.2595470693 
Zr          10.3649814964       0.4897183655       3.8977347224 
Zr          10.2915178539       0.5090675659       9.2724198188 
Zr          10.3219466571       0.5745177255      14.6534056715 
Zr          10.3530160063       4.1077519117       5.2672406639 
Zr          10.3631297282       3.9850626552      10.6944533140 
Zr          10.3981237122       4.1108816570      15.9391154342 
Zr          10.3126156795       7.5135789080       6.6534000221 
Zr          10.3090756656       7.5285346150      12.0112118589 
Zr          10.3661510366       7.6500976483      17.3255249938 
Si           2.8388501425       1.4344671264       1.3415008904 
Si           2.7742759487       1.5377753862       6.7606160674 
Si           2.8988521198       1.4710095784      12.0844894296 
Si           2.9038073158       4.9959718743       2.7397934985 
Si           2.7919149181       5.0066443938       7.9934434957 
Si           2.8844186433       4.9763244581      13.4278752485 
Si           2.7817579055       8.5584843891       4.0098006438 
Si           2.7529563558       8.5546461054       9.4315319422 
Si           2.8487353914       8.5873294350      14.6624166001 
Si           6.6170683088       1.4461161210       1.4643774016 
Si           6.5364422810       1.4719662143       6.7768184606 
Si           6.6102469212       1.4259733558      12.1019335499 
Si           6.5521236162       5.0817136111       2.7580554266 
Si           6.6111057602       4.9905711394       8.1378469669 
Si           6.6120893431       5.0126847825      13.3130934720 
Si           6.6713184717       8.5203890978       4.0767165506 
Si           6.6398593061       8.4829937455       9.4161142611 
Si           6.6701222485       8.5518560649      14.7603136973 
Si          10.3744107027       1.5594965662       1.3641484189 
Si          10.4429556901       1.4894244347       6.7048013962 
Si          10.2907770945       1.5154410297      12.0556286647 
Si          10.2966482719       5.0498158229       2.7620029094 
Si          10.3228799209       5.0400771287       8.1281574930 
Si          10.2907469319       5.0173637069      13.3641932290 
Si          10.4416150758       8.5372764136       4.0984202493 
Si          10.4369337965       8.5611847411       9.4368546205 
Si          10.3995603984       8.5551279079      14.8014122345 
Si           1.0026869377       1.9964303905       5.2390702245 
Si           0.9522322542       2.0893841184      10.6559626972 
Si           0.9692584212       2.0052353786      15.9850631676 
Si           0.8864051516       5.6283804140       6.6138693170 
Si           0.9384309389       5.6396624764      11.9729001109 
Si           0.9970854008       5.5353720507      17.2118098205 
Si           0.9216668617       9.1317864486       7.8691561443 
Si           0.8850565707       9.0468906009      13.2724029895 
Si           0.9988379832       9.0503359628      18.6168426764 
Si           4.6824139967       2.0856750336       5.3254601014 
Si           4.6414963321       2.0139475476      10.6181150486 
Si           4.7780138756       2.0544502222      15.8761448876 
Si           4.6388167212       5.6012450788       6.5877334516 
Si           4.7243775477       5.5144024288      11.9837896583 
Si           4.7242429018       5.5153933936      17.2021492750 
Si           4.6593132371       9.0899420998       7.8816340995 
Si           4.7119115900       9.1118133499      13.3471720892 
Si           4.7599512173       9.1587212632      18.5643653543 
Si           8.4893401260       2.0101924792       5.1922647565 
Si           8.4646665650       2.0273813903      10.6691427776 
Si           8.4704067351       1.9676829351      15.9468396487 
Si           8.5272656103       5.6372022618       6.5948105543 
Si           8.4428287614       5.5756220409      11.8599055748 
Si           8.5421189916       5.5224231401      17.2716147550 
Si           8.4233030797       9.1095065072       7.8859768446 
Si           8.5330508357       9.0444145183      13.2492122304 
Si           8.4992727235       9.0246579520      18.5984891887 
K_POINTS automatic
6 6 5 0 0 0
CELL_PARAMETERS angstrom
     11.3083500000       0.0000000000       0.0000000000
     -0.0000000000      10.5907642599       4.0131791996
      0.0000000000       0.0000000000      15.9811200000
