&control
calculation='vc-relax',
restart_mode='from_scratch',
pseudo_dir = './',
outdir='./',
prefix = 'scf_'
/
&system
ibrav=0, celldm(1)=1, ecutwfc=30, ecutrho = 600,
occupations = 'smearing', smearing = 'gauss', degauss = 0.01,
nat=6 ntyp=2
/
&electrons
conv_thr =  1.0d-9,
mixing_beta = 0.7,
electron_maxstep = 100
/
&IONS
 ion_dynamics='bfgs',
/
&CELL
 cell_dynamics='bfgs',
/
ATOMIC_SPECIES
Si 0.0 si_lda_v1.uspp.F.UPF
O  0.0 o_lda_v1.2.uspp.F.UPF
CELL_PARAMETERS
        0.00000000        6.72742500        6.72742500
        6.72742500        0.00000000        6.72742500
        6.72742500        6.72742500        0.00000000
ATOMIC_POSITIONS (crystal)
Si          0.75000000         0.75000000         0.75000000
Si          0.50000000         0.50000000         0.50000000
O          0.62500000         0.12500000         0.62500000
O          0.62500000         0.62500000         0.12500000
O          0.12500000         0.62500000         0.62500000
O          0.62500000         0.62500000         0.62500000
K_POINTS (automatic)
2 2 2  0 0 0
