&CONTROL
  calculation = 'scf'
  max_seconds = 13774
  outdir = './out/'
  prefix = 'aiida'
  pseudo_dir = './pseudo/'
  restart_mode = 'from_scratch'
  verbosity = 'high'
/
&SYSTEM
  degauss =   2.0000000000d-02
  ecutrho =   3.6000000000d+02
  ecutwfc =   4.5000000000d+01
  ibrav = 0
  nat = 24
  nspin = 2
  ntyp = 2
  occupations = 'smearing'
  smearing = 'cold'
  starting_magnetization(1) =   0.0000000000d+00
  starting_magnetization(2) =   4.1666666667d-01
/
&ELECTRONS
  conv_thr =   2.4000000000d-07
  electron_maxstep = 100
  mixing_beta =   3.5000000000d-01
/
ATOMIC_SPECIES
Si     28.0855 Si.pbe-n-rrkjus_psl.1.0.0.UPF
Zr     91.224 Zr_pbe_v1.uspp.F.UPF
ATOMIC_POSITIONS angstrom
Zr           0.9602329271       2.9599997313       2.6379114597 
Zr           0.9342243312       6.5773246794       3.9541279347 
Zr           4.7235839654       2.9996237216       2.7674053468 
Zr           4.7444274931       6.6207422839       4.0342431985 
Zr           8.4708772972       3.0691073614       2.7507758005 
Zr           8.5168484657       6.6106821022       4.0627142687 
Zr           2.7781243972       0.4933627721       3.9141145451 
Zr           2.8744645207       3.9825167285       5.2893249117 
Zr           6.6409501059       0.4901379210       3.9117498019 
Zr           6.5174908320       4.0314966478       5.3072693949 
Zr          10.4306845383       0.5592147651       3.9682822196 
Zr          10.3894708237       4.0923990167       5.3703461938 
Si           2.7996032248       1.4392251042       1.3426130677 
Si           2.8284155367       5.0676830557       2.6741864970 
Si           6.6108336781       1.4834567344       1.3209786068 
Si           6.6495346275       5.0686279366       2.7044242876 
Si          10.3002882193       1.4751128371       1.3558294528 
Si          10.3405757655       4.9430556512       2.7294129220 
Si           0.8646268957       2.0609042035       5.2651464967 
Si           1.0022103173       5.5502807217       6.6512713729 
Si           4.7464622634       2.0611891460       5.1957135134 
Si           4.6657321021       5.6276642533       6.6376894143 
Si           8.4579990669       2.1184204416       5.2696411160 
Si           8.4147635618       5.5735367639       6.5584928284 
K_POINTS automatic
6 9 13 0 0 0
CELL_PARAMETERS angstrom
     11.3083500000       0.0000000000       0.0000000000
     -0.0000000000       7.0605095066       2.6754527997
      0.0000000000       0.0000000000       5.3270400000
