&control
calculation='scf',
restart_mode='from_scratch',
pseudo_dir = './',
outdir='./',
prefix = 'scf_',
tstress = false,
tprnfor = false,
verbosity = 'high',
disk_io = 'none',
wf_collect = false
/
&system
ibrav=0, celldm(1)=1, ecutwfc=40, ecutrho = 300,
occupations = 'smearing', smearing = 'gauss', degauss = 0.001,
nat=250 ntyp=2
/
&electrons
conv_thr =  1.0d-11,
mixing_beta = 0.7,
electron_maxstep = 100
/
&IONS
ion_dynamics='bfgs',
/
&CELL
cell_dynamics='bfgs',
/
ATOMIC_SPECIES
Mg 0.0 mg_lda_v1.4.uspp.F.UPF
O 0.0  o_lda_v1.2.uspp.F.UPF
CELL_PARAMETERS
        0.00000000       19.92243767       19.92243767
       19.92243767        0.00000000       19.92243767
       19.92243767       19.92243767        0.00000000
ATOMIC_POSITIONS (crystal)
Mg          0.00000000         0.00000000         0.00000000
Mg          0.00000000         0.00000000         0.20000000
Mg          0.00000000         0.00000000         0.40000000
Mg          0.00000000         0.00000000         0.60000000
Mg          0.00000000         0.00000000         0.80000000
Mg          0.00000000         0.20000000         0.00000000
Mg          0.00000000         0.20000000         0.20000000
Mg          0.00000000         0.20000000         0.40000000
Mg          0.00000000         0.20000000         0.60000000
Mg          0.00000000         0.20000000         0.80000000
Mg          0.00000000         0.40000000         0.00000000
Mg          0.00000000         0.40000000         0.20000000
Mg          0.00000000         0.40000000         0.40000000
Mg          0.00000000         0.40000000         0.60000000
Mg          0.00000000         0.40000000         0.80000000
Mg          0.00000000         0.60000000         0.00000000
Mg          0.00000000         0.60000000         0.20000000
Mg          0.00000000         0.60000000         0.40000000
Mg          0.00000000         0.60000000         0.60000000
Mg          0.00000000         0.60000000         0.80000000
Mg          0.00000000         0.80000000         0.00000000
Mg          0.00000000         0.80000000         0.20000000
Mg          0.00000000         0.80000000         0.40000000
Mg          0.00000000         0.80000000         0.60000000
Mg          0.00000000         0.80000000         0.80000000
Mg          0.20000000         0.00000000         0.00000000
Mg          0.20000000         0.00000000         0.20000000
Mg          0.20000000         0.00000000         0.40000000
Mg          0.20000000         0.00000000         0.60000000
Mg          0.20000000         0.00000000         0.80000000
Mg          0.20000000         0.20000000         0.00000000
Mg          0.20000000         0.20000000         0.20000000
Mg          0.20000000         0.20000000         0.40000000
Mg          0.20000000         0.20000000         0.60000000
Mg          0.20000000         0.20000000         0.80000000
Mg          0.20000000         0.40000000         0.00000000
Mg          0.20000000         0.40000000         0.20000000
Mg          0.20000000         0.40000000         0.40000000
Mg          0.20000000         0.40000000         0.60000000
Mg          0.20000000         0.40000000         0.80000000
Mg          0.20000000         0.60000000         0.00000000
Mg          0.20000000         0.60000000         0.20000000
Mg          0.20000000         0.60000000         0.40000000
Mg          0.20000000         0.60000000         0.60000000
Mg          0.20000000         0.60000000         0.80000000
Mg          0.20000000         0.80000000         0.00000000
Mg          0.20000000         0.80000000         0.20000000
Mg          0.20000000         0.80000000         0.40000000
Mg          0.20000000         0.80000000         0.60000000
Mg          0.20000000         0.80000000         0.80000000
Mg          0.40000000         0.00000000         0.00000000
Mg          0.40000000         0.00000000         0.20000000
Mg          0.40000000         0.00000000         0.40000000
Mg          0.40000000         0.00000000         0.60000000
Mg          0.40000000         0.00000000         0.80000000
Mg          0.40000000         0.20000000         0.00000000
Mg          0.40000000         0.20000000         0.20000000
Mg          0.40000000         0.20000000         0.40000000
Mg          0.40000000         0.20000000         0.60000000
Mg          0.40000000         0.20000000         0.80000000
Mg          0.40000000         0.40000000         0.00000000
Mg          0.40000000         0.40000000         0.20000000
Mg          0.40000000         0.40000000         0.40000000
Mg          0.40000000         0.40000000         0.60000000
Mg          0.40000000         0.40000000         0.80000000
Mg          0.40000000         0.60000000         0.00000000
Mg          0.40000000         0.60000000         0.20000000
Mg          0.40000000         0.60000000         0.40000000
Mg          0.40000000         0.60000000         0.60000000
Mg          0.40000000         0.60000000         0.80000000
Mg          0.40000000         0.80000000         0.00000000
Mg          0.40000000         0.80000000         0.20000000
Mg          0.40000000         0.80000000         0.40000000
Mg          0.40000000         0.80000000         0.60000000
Mg          0.40000000         0.80000000         0.80000000
Mg          0.60000000         0.00000000         0.00000000
Mg          0.60000000         0.00000000         0.20000000
Mg          0.60000000         0.00000000         0.40000000
Mg          0.60000000         0.00000000         0.60000000
Mg          0.60000000         0.00000000         0.80000000
Mg          0.60000000         0.20000000         0.00000000
Mg          0.60000000         0.20000000         0.20000000
Mg          0.60000000         0.20000000         0.40000000
Mg          0.60000000         0.20000000         0.60000000
Mg          0.60000000         0.20000000         0.80000000
Mg          0.60000000         0.40000000         0.00000000
Mg          0.60000000         0.40000000         0.20000000
Mg          0.60000000         0.40000000         0.40000000
Mg          0.60000000         0.40000000         0.60000000
Mg          0.60000000         0.40000000         0.80000000
Mg          0.60000000         0.60000000         0.00000000
Mg          0.60000000         0.60000000         0.20000000
Mg          0.60000000         0.60000000         0.40000000
Mg          0.60000000         0.60000000         0.60000000
Mg          0.60000000         0.60000000         0.80000000
Mg          0.60000000         0.80000000         0.00000000
Mg          0.60000000         0.80000000         0.20000000
Mg          0.60000000         0.80000000         0.40000000
Mg          0.60000000         0.80000000         0.60000000
Mg          0.60000000         0.80000000         0.80000000
Mg          0.80000000         0.00000000         0.00000000
Mg          0.80000000         0.00000000         0.20000000
Mg          0.80000000         0.00000000         0.40000000
Mg          0.80000000         0.00000000         0.60000000
Mg          0.80000000         0.00000000         0.80000000
Mg          0.80000000         0.20000000         0.00000000
Mg          0.80000000         0.20000000         0.20000000
Mg          0.80000000         0.20000000         0.40000000
Mg          0.80000000         0.20000000         0.60000000
Mg          0.80000000         0.20000000         0.80000000
Mg          0.80000000         0.40000000         0.00000000
Mg          0.80000000         0.40000000         0.20000000
Mg          0.80000000         0.40000000         0.40000000
Mg          0.80000000         0.40000000         0.60000000
Mg          0.80000000         0.40000000         0.80000000
Mg          0.80000000         0.60000000         0.00000000
Mg          0.80000000         0.60000000         0.20000000
Mg          0.80000000         0.60000000         0.40000000
Mg          0.80000000         0.60000000         0.60000000
Mg          0.80000000         0.60000000         0.80000000
Mg          0.80000000         0.80000000         0.00000000
Mg          0.80000000         0.80000000         0.20000000
Mg          0.80000000         0.80000000         0.40000000
Mg          0.80000000         0.80000000         0.60000000
Mg          0.80000000         0.80000000         0.80000000
O          0.10000000         0.10000000         0.10000000
O          0.10000000         0.10000000         0.30000000
O          0.10000000         0.10000000         0.50000000
O          0.10000000         0.10000000         0.70000000
O          0.10000000         0.10000000         0.90000000
O          0.10000000         0.30000000         0.10000000
O          0.10000000         0.30000000         0.30000000
O          0.10000000         0.30000000         0.50000000
O          0.10000000         0.30000000         0.70000000
O          0.10000000         0.30000000         0.90000000
O          0.10000000         0.50000000         0.10000000
O          0.10000000         0.50000000         0.30000000
O          0.10000000         0.50000000         0.50000000
O          0.10000000         0.50000000         0.70000000
O          0.10000000         0.50000000         0.90000000
O          0.10000000         0.70000000         0.10000000
O          0.10000000         0.70000000         0.30000000
O          0.10000000         0.70000000         0.50000000
O          0.10000000         0.70000000         0.70000000
O          0.10000000         0.70000000         0.90000000
O          0.10000000         0.90000000         0.10000000
O          0.10000000         0.90000000         0.30000000
O          0.10000000         0.90000000         0.50000000
O          0.10000000         0.90000000         0.70000000
O          0.10000000         0.90000000         0.90000000
O          0.30000000         0.10000000         0.10000000
O          0.30000000         0.10000000         0.30000000
O          0.30000000         0.10000000         0.50000000
O          0.30000000         0.10000000         0.70000000
O          0.30000000         0.10000000         0.90000000
O          0.30000000         0.30000000         0.10000000
O          0.30000000         0.30000000         0.30000000
O          0.30000000         0.30000000         0.50000000
O          0.30000000         0.30000000         0.70000000
O          0.30000000         0.30000000         0.90000000
O          0.30000000         0.50000000         0.10000000
O          0.30000000         0.50000000         0.30000000
O          0.30000000         0.50000000         0.50000000
O          0.30000000         0.50000000         0.70000000
O          0.30000000         0.50000000         0.90000000
O          0.30000000         0.70000000         0.10000000
O          0.30000000         0.70000000         0.30000000
O          0.30000000         0.70000000         0.50000000
O          0.30000000         0.70000000         0.70000000
O          0.30000000         0.70000000         0.90000000
O          0.30000000         0.90000000         0.10000000
O          0.30000000         0.90000000         0.30000000
O          0.30000000         0.90000000         0.50000000
O          0.30000000         0.90000000         0.70000000
O          0.30000000         0.90000000         0.90000000
O          0.50000000         0.10000000         0.10000000
O          0.50000000         0.10000000         0.30000000
O          0.50000000         0.10000000         0.50000000
O          0.50000000         0.10000000         0.70000000
O          0.50000000         0.10000000         0.90000000
O          0.50000000         0.30000000         0.10000000
O          0.50000000         0.30000000         0.30000000
O          0.50000000         0.30000000         0.50000000
O          0.50000000         0.30000000         0.70000000
O          0.50000000         0.30000000         0.90000000
O          0.50000000         0.50000000         0.10000000
O          0.50000000         0.50000000         0.30000000
O          0.50000000         0.50000000         0.50000000
O          0.50000000         0.50000000         0.70000000
O          0.50000000         0.50000000         0.90000000
O          0.50000000         0.70000000         0.10000000
O          0.50000000         0.70000000         0.30000000
O          0.50000000         0.70000000         0.50000000
O          0.50000000         0.70000000         0.70000000
O          0.50000000         0.70000000         0.90000000
O          0.50000000         0.90000000         0.10000000
O          0.50000000         0.90000000         0.30000000
O          0.50000000         0.90000000         0.50000000
O          0.50000000         0.90000000         0.70000000
O          0.50000000         0.90000000         0.90000000
O          0.70000000         0.10000000         0.10000000
O          0.70000000         0.10000000         0.30000000
O          0.70000000         0.10000000         0.50000000
O          0.70000000         0.10000000         0.70000000
O          0.70000000         0.10000000         0.90000000
O          0.70000000         0.30000000         0.10000000
O          0.70000000         0.30000000         0.30000000
O          0.70000000         0.30000000         0.50000000
O          0.70000000         0.30000000         0.70000000
O          0.70000000         0.30000000         0.90000000
O          0.70000000         0.50000000         0.10000000
O          0.70000000         0.50000000         0.30000000
O          0.70000000         0.50000000         0.50000000
O          0.70000000         0.50000000         0.70000000
O          0.70000000         0.50000000         0.90000000
O          0.70000000         0.70000000         0.10000000
O          0.70000000         0.70000000         0.30000000
O          0.70000000         0.70000000         0.50000000
O          0.70000000         0.70000000         0.70000000
O          0.70000000         0.70000000         0.90000000
O          0.70000000         0.90000000         0.10000000
O          0.70000000         0.90000000         0.30000000
O          0.70000000         0.90000000         0.50000000
O          0.70000000         0.90000000         0.70000000
O          0.70000000         0.90000000         0.90000000
O          0.90000000         0.10000000         0.10000000
O          0.90000000         0.10000000         0.30000000
O          0.90000000         0.10000000         0.50000000
O          0.90000000         0.10000000         0.70000000
O          0.90000000         0.10000000         0.90000000
O          0.90000000         0.30000000         0.10000000
O          0.90000000         0.30000000         0.30000000
O          0.90000000         0.30000000         0.50000000
O          0.90000000         0.30000000         0.70000000
O          0.90000000         0.30000000         0.90000000
O          0.90000000         0.50000000         0.10000000
O          0.90000000         0.50000000         0.30000000
O          0.90000000         0.50000000         0.50000000
O          0.90000000         0.50000000         0.70000000
O          0.90000000         0.50000000         0.90000000
O          0.90000000         0.70000000         0.10000000
O          0.90000000         0.70000000         0.30000000
O          0.90000000         0.70000000         0.50000000
O          0.90000000         0.70000000         0.70000000
O          0.90000000         0.70000000         0.90000000
O          0.90000000         0.90000000         0.10000000
O          0.90000000         0.90000000         0.30000000
O          0.90000000         0.90000000         0.50000000
O          0.90000000         0.90000000         0.70000000
O          0.90000000         0.90000000         0.90000000
K_POINTS (automatic)
2 2 2  0 0 0
