&CONTROL
  calculation = 'scf'
  outdir = './out/'
  prefix = 'aiid'
  pseudo_dir = './pseudo/'
  restart_mode = 'from_scratch'
  verbosity = 'high'
/
&SYSTEM
  degauss =   2.0000000000d-02
  ecutrho =   3.6000000000d+02
  ecutwfc =   4.5000000000d+01
  ibrav = 0
  nat = 54
  ntyp = 2
  occupations = 'smearing'
  smearing = 'cold'
/
&ELECTRONS
  conv_thr =   5.4000000000d-07
  electron_maxstep = 100
  mixing_beta =   3.5000000000d-01
/
ATOMIC_SPECIES
Cs     132.9054519 Cs_pbe_v1.uspp.F.UPF
I      126.90447 I_pbe_v1.uspp.F.UPF
ATOMIC_POSITIONS angstrom
Cs           8.3380911994      11.6779435068       8.2963072171 
Cs           8.2444271396      11.7304914298      -2.8112762418 
Cs           8.2660880055      11.6853345699       2.7583680390 
Cs          13.8249170768       3.8557356596      -2.7247668355 
Cs          13.8529186497       3.8461380247       2.7332260696 
Cs          -2.7863573833       3.9858187688       8.3471753479 
Cs          -5.5487346438       7.9010440590      -5.4964874107 
Cs          -5.4680562521       7.8008080163       0.0119086089 
Cs          11.0235164808       7.8910243758       5.5475129477 
Cs           5.4884718851       0.0488212731      16.5818320259 
Cs          -2.8443191094      11.7510058434      -2.7406171358 
Cs           5.4959906975       0.0392806595      11.1336938647 
Cs           2.7951558436       3.9930560515      -2.7690523076 
Cs           2.7569046060       3.8391638504       2.7576947005 
Cs           2.8488515418       3.9272262451       8.3019264108 
Cs          -0.0280673759       7.7880310638      -5.4808172852 
Cs          -0.0261290650       7.7620593696      -0.0222214390 
Cs           0.0223017536       7.8734035574       5.6058622819 
Cs          11.0549049940       0.0431424781       0.0627514228 
Cs          11.0827088530       0.0430205982       5.6070777339 
Cs          11.1144590501       0.0718853995      11.0816004366 
Cs           8.3719082133       3.9289649940      13.8005500633 
Cs           8.3508341056       3.9122996039       2.7014943814 
Cs           8.2406984403       3.9492748945       8.3345939510 
Cs           5.6029405780       7.8548610688      -5.4952072703 
Cs           5.5939708284       7.8727169310      -0.0445245706 
Cs           5.6049095594       7.8533977020       5.4974541706 
I            2.7776983261       0.0795807063       2.7675326267 
I            2.7026798082       0.0018838802       8.3529694307 
I            2.7131861712       0.0560931935      13.8557709590 
I            0.0438381313       3.9831134107       0.0113676786 
I            0.0246104669       3.8590610890       5.4905359689 
I            0.0064017450       3.9301392407      11.1581011657 
I           -2.7699168080       7.8305900001      -2.8497673647 
I           -2.7392087620       7.8059077070       2.7016434904 
I           -2.7042424518       7.8640743027       8.3443565110 
I            0.0660323249      11.7332327420      -5.4984055587 
I            8.2737511141       0.0704179397       8.2969682008 
I            8.3638371152       0.0148217601      13.9061507676 
I            5.4833127161       3.9133495361      -0.0566107508 
I            5.5929940385       3.9269289698       5.5985785447 
I            5.4883431740       3.8594809926      11.1002486015 
I            2.7038656049       7.8794483497      -2.7730182550 
I            2.7098565823       7.8629056715       2.7253152078 
I            2.7231572526       7.8352165759       8.3745152865 
I            5.6009507377      11.7054998643      -5.5628098631 
I            5.4676064511      11.7179931426       0.0088544277 
I           13.8789198051       0.0512879774      13.7955095007 
I           11.0076599406       3.8818045457      -0.0001599453 
I           11.0577729171       3.8817253190       5.6080863556 
I           11.0385240182       3.9841028633      11.0637024028 
I            8.3595047599       7.8943226425      -2.7523260296 
I            8.3826175114       7.8667028728       2.7659151028 
I            8.2842706969       7.9066655717       8.2865824138 
K_POINTS automatic
5 6 5 0 0 0
CELL_PARAMETERS angstrom
     16.6191300000       0.0000000000       0.0000000000
     -8.3095650000      11.7514995204      -8.3095650000
      0.0000000000       0.0000000000      16.6191300000
