&CONTROL
  calculation = 'scf'
  outdir = './out/'
  prefix = 'aiida_'
  pseudo_dir = './pseudo/'
  restart_mode = 'from_scratch'
  verbosity = 'high'
/
&SYSTEM
  degauss =   2.0000000000d-02
  ecutrho =   3.6000000000d+02
  ecutwfc =   4.5000000000d+01
  ibrav = 0
  nat = 24
  ntyp = 2
  occupations = 'smearing'
  smearing = 'cold'
/
&ELECTRONS
  conv_thr =   2.4000000000d-07
  electron_maxstep = 100
  mixing_beta =   3.5000000000d-01
/
ATOMIC_SPECIES
Cs     132.9054519 Cs_pbe_v1.uspp.F.UPF
I      126.90447 I_pbe_v1.uspp.F.UPF
ATOMIC_POSITIONS angstrom
Cs          -0.0091748914       0.0439234848      11.0131889737 
Cs          11.0562920801       7.8222887429       0.0756309121 
Cs          13.8049387856       3.8531497893       8.2912303342 
Cs          -2.7741810897       3.9410210544       2.6936169156 
Cs           5.5910506849       0.0584884420      -0.0185266355 
Cs          -0.0665849060       7.8298017174       0.0441125566 
Cs           2.7004078224       3.9419448207      -2.7388207499 
Cs           2.7897135262       3.9102205615       2.6926708515 
Cs           5.5213139829       7.7780900638      -5.4858739790 
Cs           5.4813825313       7.7796495918       0.0027622045 
Cs           8.2626608602       3.9754228993      -2.7414614372 
Cs           8.3250533316       3.8547807747       2.7222300904 
I           -2.7191941798       7.8286308853      -2.7082030168 
I            2.8415327012       0.0321552143       8.3246762321 
I           -0.0471026448       3.8985763344       0.0619334025 
I           -0.0795086537       3.9123623958       5.5322739722 
I            2.7967595676       7.8199382537      -2.8438072490 
I            2.7217690654       7.7714490818       2.7814029009 
I            5.4985072589       3.8621909118      -0.0409880236 
I            5.5077676584       3.9625977935       5.4821280150 
I           13.8277894459       0.0769391573       2.7741836307 
I           13.7740860952       0.0219909604       8.2933469159 
I           11.0217653143       3.9147698488      -0.0554093245 
I           11.1555692589       3.8943588799       5.5487156942 
K_POINTS automatic
5 9 7 0 0 0
CELL_PARAMETERS angstrom
     16.6191300000       0.0000000000       0.0000000000
     -5.5397100000       7.8343330136      -5.5397100000
      0.0000000000       0.0000000000      11.0794200000
