&CONTROL
  calculation = 'scf'
  etot_conv_thr =   1.0000000000d-05
  forc_conv_thr =   5.0000000000d-05
  max_seconds =   3.4200000000d+03
  outdir = './out/'
  prefix = 'CTi'
  pseudo_dir = '.'
  tprnfor = .true.
  tstress = .true.
  verbosity = 'high'
/
&SYSTEM
  degauss =   0.01
  ecutrho =   400.0
  ecutwfc =   100.0
  ibrav = 0
  nat = 2
  nosym = .false.
  ntyp = 2
  occupations = 'smearing'
  smearing = 'cold'
/
&ELECTRONS
  conv_thr =   2.0000000000d-15
  diagonalization = 'davidson'
  electron_maxstep = 300
  mixing_beta =   4.0000000000d-01
/
ATOMIC_SPECIES
C      12.0107 C.upf
Ti     47.867 Ti.upf
ATOMIC_POSITIONS angstrom
Ti           2.1575000000       2.1575000000       2.1575000000
C            0.0000000000       0.0000000000       0.0000000000
K_POINTS automatic
7 7 7 0 0 0
CELL_PARAMETERS angstrom
      0.0000000000       2.1575000000       2.1575000000
      2.1575000000       0.0000000000       2.1575000000
      2.1575000000       2.1575000000       0.0000000000
HUBBARD ortho-atomic
 V      Ti-3d   Ti-3d   1       1       1e-08
 V      Ti-3d   C-2p    1       52      1e-08
 V      Ti-3d   C-2p    1       48      1e-08
 V      Ti-3d   C-2p    1       30      1e-08
 V      Ti-3d   C-2p    1       34      1e-08
 V      Ti-3d   C-2p    1       46      1e-08
 V      Ti-3d   C-2p    1       36      1e-08
