&control
calculation='scf',
restart_mode='from_scratch',
pseudo_dir = './',
outdir='./',
prefix = 'scf_',
tstress = false,
tprnfor = false,
verbosity = 'high',
disk_io = 'none',
wf_collect = false
/
&system
ibrav=0, celldm(1)=1, ecutwfc=25, ecutrho = 200, nspin=2, starting_magnetization(4)=0.2
occupations = 'smearing', smearing = 'gauss', degauss = 0.001,
nat=1080, ntyp=4
/
&electrons
conv_thr =  1.0d-8,
mixing_beta = 0.5,
electron_maxstep = 100
/
&IONS
ion_dynamics='bfgs',
/
&CELL
cell_dynamics='bfgs',
/
ATOMIC_SPECIES
Sr 0.0   sr_lda_v1.uspp.F.UPF
O 0.0    o_lda_v1.2.uspp.F.UPF
Ti 0.0   ti_lda_v1.4.uspp.F.UPF
Cr 0.0   cr_lda_v1.5.uspp.F.UPF
CELL_PARAMETERS
       44.27945784        0.00000000        0.00000000
        0.00000000       44.27945784        0.00000000
        0.00000000        0.00000000       44.27945784
ATOMIC_POSITIONS (crystal)
Sr          0.41666667         0.41666667         0.41666667
Sr          0.41666667         0.41666667         0.58333333
Sr          0.41666667         0.41666667         0.75000000
Sr          0.41666667         0.41666667         0.91666667
Sr          0.41666667         0.41666667         0.08333333
Sr          0.41666667         0.41666667         0.25000000
Sr          0.41666667         0.58333333         0.41666667
Sr          0.41666667         0.58333333         0.58333333
Sr          0.41666667         0.58333333         0.75000000
Sr          0.41666667         0.58333333         0.91666667
Sr          0.41666667         0.58333333         0.08333333
Sr          0.41666667         0.58333333         0.25000000
Sr          0.41666667         0.75000000         0.41666667
Sr          0.41666667         0.75000000         0.58333333
Sr          0.41666667         0.75000000         0.75000000
Sr          0.41666667         0.75000000         0.91666667
Sr          0.41666667         0.75000000         0.08333333
Sr          0.41666667         0.75000000         0.25000000
Sr          0.41666667         0.91666667         0.41666667
Sr          0.41666667         0.91666667         0.58333333
Sr          0.41666667         0.91666667         0.75000000
Sr          0.41666667         0.91666667         0.91666667
Sr          0.41666667         0.91666667         0.08333333
Sr          0.41666667         0.91666667         0.25000000
Sr          0.41666667         0.08333333         0.41666667
Sr          0.41666667         0.08333333         0.58333333
Sr          0.41666667         0.08333333         0.75000000
Sr          0.41666667         0.08333333         0.91666667
Sr          0.41666667         0.08333333         0.08333333
Sr          0.41666667         0.08333333         0.25000000
Sr          0.41666667         0.25000000         0.41666667
Sr          0.41666667         0.25000000         0.58333333
Sr          0.41666667         0.25000000         0.75000000
Sr          0.41666667         0.25000000         0.91666667
Sr          0.41666667         0.25000000         0.08333333
Sr          0.41666667         0.25000000         0.25000000
Sr          0.58333333         0.41666667         0.41666667
Sr          0.58333333         0.41666667         0.58333333
Sr          0.58333333         0.41666667         0.75000000
Sr          0.58333333         0.41666667         0.91666667
Sr          0.58333333         0.41666667         0.08333333
Sr          0.58333333         0.41666667         0.25000000
Sr          0.58333333         0.58333333         0.41666667
Sr          0.58333333         0.58333333         0.58333333
Sr          0.58333333         0.58333333         0.75000000
Sr          0.58333333         0.58333333         0.91666667
Sr          0.58333333         0.58333333         0.08333333
Sr          0.58333333         0.58333333         0.25000000
Sr          0.58333333         0.75000000         0.41666667
Sr          0.58333333         0.75000000         0.58333333
Sr          0.58333333         0.75000000         0.75000000
Sr          0.58333333         0.75000000         0.91666667
Sr          0.58333333         0.75000000         0.08333333
Sr          0.58333333         0.75000000         0.25000000
Sr          0.58333333         0.91666667         0.41666667
Sr          0.58333333         0.91666667         0.58333333
Sr          0.58333333         0.91666667         0.75000000
Sr          0.58333333         0.91666667         0.91666667
Sr          0.58333333         0.91666667         0.08333333
Sr          0.58333333         0.91666667         0.25000000
Sr          0.58333333         0.08333333         0.41666667
Sr          0.58333333         0.08333333         0.58333333
Sr          0.58333333         0.08333333         0.75000000
Sr          0.58333333         0.08333333         0.91666667
Sr          0.58333333         0.08333333         0.08333333
Sr          0.58333333         0.08333333         0.25000000
Sr          0.58333333         0.25000000         0.41666667
Sr          0.58333333         0.25000000         0.58333333
Sr          0.58333333         0.25000000         0.75000000
Sr          0.58333333         0.25000000         0.91666667
Sr          0.58333333         0.25000000         0.08333333
Sr          0.58333333         0.25000000         0.25000000
Sr          0.75000000         0.41666667         0.41666667
Sr          0.75000000         0.41666667         0.58333333
Sr          0.75000000         0.41666667         0.75000000
Sr          0.75000000         0.41666667         0.91666667
Sr          0.75000000         0.41666667         0.08333333
Sr          0.75000000         0.41666667         0.25000000
Sr          0.75000000         0.58333333         0.41666667
Sr          0.75000000         0.58333333         0.58333333
Sr          0.75000000         0.58333333         0.75000000
Sr          0.75000000         0.58333333         0.91666667
Sr          0.75000000         0.58333333         0.08333333
Sr          0.75000000         0.58333333         0.25000000
Sr          0.75000000         0.75000000         0.41666667
Sr          0.75000000         0.75000000         0.58333333
Sr          0.75000000         0.75000000         0.75000000
Sr          0.75000000         0.75000000         0.91666667
Sr          0.75000000         0.75000000         0.08333333
Sr          0.75000000         0.75000000         0.25000000
Sr          0.75000000         0.91666667         0.41666667
Sr          0.75000000         0.91666667         0.58333333
Sr          0.75000000         0.91666667         0.75000000
Sr          0.75000000         0.91666667         0.91666667
Sr          0.75000000         0.91666667         0.08333333
Sr          0.75000000         0.91666667         0.25000000
Sr          0.75000000         0.08333333         0.41666667
Sr          0.75000000         0.08333333         0.58333333
Sr          0.75000000         0.08333333         0.75000000
Sr          0.75000000         0.08333333         0.91666667
Sr          0.75000000         0.08333333         0.08333333
Sr          0.75000000         0.08333333         0.25000000
Sr          0.75000000         0.25000000         0.41666667
Sr          0.75000000         0.25000000         0.58333333
Sr          0.75000000         0.25000000         0.75000000
Sr          0.75000000         0.25000000         0.91666667
Sr          0.75000000         0.25000000         0.08333333
Sr          0.75000000         0.25000000         0.25000000
Sr          0.91666667         0.41666667         0.41666667
Sr          0.91666667         0.41666667         0.58333333
Sr          0.91666667         0.41666667         0.75000000
Sr          0.91666667         0.41666667         0.91666667
Sr          0.91666667         0.41666667         0.08333333
Sr          0.91666667         0.41666667         0.25000000
Sr          0.91666667         0.58333333         0.41666667
Sr          0.91666667         0.58333333         0.58333333
Sr          0.91666667         0.58333333         0.75000000
Sr          0.91666667         0.58333333         0.91666667
Sr          0.91666667         0.58333333         0.08333333
Sr          0.91666667         0.58333333         0.25000000
Sr          0.91666667         0.75000000         0.41666667
Sr          0.91666667         0.75000000         0.58333333
Sr          0.91666667         0.75000000         0.75000000
Sr          0.91666667         0.75000000         0.91666667
Sr          0.91666667         0.75000000         0.08333333
Sr          0.91666667         0.75000000         0.25000000
Sr          0.91666667         0.91666667         0.41666667
Sr          0.91666667         0.91666667         0.58333333
Sr          0.91666667         0.91666667         0.75000000
Sr          0.91666667         0.91666667         0.91666667
Sr          0.91666667         0.91666667         0.08333333
Sr          0.91666667         0.91666667         0.25000000
Sr          0.91666667         0.08333333         0.41666667
Sr          0.91666667         0.08333333         0.58333333
Sr          0.91666667         0.08333333         0.75000000
Sr          0.91666667         0.08333333         0.91666667
Sr          0.91666667         0.08333333         0.08333333
Sr          0.91666667         0.08333333         0.25000000
Sr          0.91666667         0.25000000         0.41666667
Sr          0.91666667         0.25000000         0.58333333
Sr          0.91666667         0.25000000         0.75000000
Sr          0.91666667         0.25000000         0.91666667
Sr          0.91666667         0.25000000         0.08333333
Sr          0.91666667         0.25000000         0.25000000
Sr          0.08333333         0.41666667         0.41666667
Sr          0.08333333         0.41666667         0.58333333
Sr          0.08333333         0.41666667         0.75000000
Sr          0.08333333         0.41666667         0.91666667
Sr          0.08333333         0.41666667         0.08333333
Sr          0.08333333         0.41666667         0.25000000
Sr          0.08333333         0.58333333         0.41666667
Sr          0.08333333         0.58333333         0.58333333
Sr          0.08333333         0.58333333         0.75000000
Sr          0.08333333         0.58333333         0.91666667
Sr          0.08333333         0.58333333         0.08333333
Sr          0.08333333         0.58333333         0.25000000
Sr          0.08333333         0.75000000         0.41666667
Sr          0.08333333         0.75000000         0.58333333
Sr          0.08333333         0.75000000         0.75000000
Sr          0.08333333         0.75000000         0.91666667
Sr          0.08333333         0.75000000         0.08333333
Sr          0.08333333         0.75000000         0.25000000
Sr          0.08333333         0.91666667         0.41666667
Sr          0.08333333         0.91666667         0.58333333
Sr          0.08333333         0.91666667         0.75000000
Sr          0.08333333         0.91666667         0.91666667
Sr          0.08333333         0.91666667         0.08333333
Sr          0.08333333         0.91666667         0.25000000
Sr          0.08333333         0.08333333         0.41666667
Sr          0.08333333         0.08333333         0.58333333
Sr          0.08333333         0.08333333         0.75000000
Sr          0.08333333         0.08333333         0.91666667
Sr          0.08333333         0.08333333         0.08333333
Sr          0.08333333         0.08333333         0.25000000
Sr          0.08333333         0.25000000         0.41666667
Sr          0.08333333         0.25000000         0.58333333
Sr          0.08333333         0.25000000         0.75000000
Sr          0.08333333         0.25000000         0.91666667
Sr          0.08333333         0.25000000         0.08333333
Sr          0.08333333         0.25000000         0.25000000
Sr          0.25000000         0.41666667         0.41666667
Sr          0.25000000         0.41666667         0.58333333
Sr          0.25000000         0.41666667         0.75000000
Sr          0.25000000         0.41666667         0.91666667
Sr          0.25000000         0.41666667         0.08333333
Sr          0.25000000         0.41666667         0.25000000
Sr          0.25000000         0.58333333         0.41666667
Sr          0.25000000         0.58333333         0.58333333
Sr          0.25000000         0.58333333         0.75000000
Sr          0.25000000         0.58333333         0.91666667
Sr          0.25000000         0.58333333         0.08333333
Sr          0.25000000         0.58333333         0.25000000
Sr          0.25000000         0.75000000         0.41666667
Sr          0.25000000         0.75000000         0.58333333
Sr          0.25000000         0.75000000         0.75000000
Sr          0.25000000         0.75000000         0.91666667
Sr          0.25000000         0.75000000         0.08333333
Sr          0.25000000         0.75000000         0.25000000
Sr          0.25000000         0.91666667         0.41666667
Sr          0.25000000         0.91666667         0.58333333
Sr          0.25000000         0.91666667         0.75000000
Sr          0.25000000         0.91666667         0.91666667
Sr          0.25000000         0.91666667         0.08333333
Sr          0.25000000         0.91666667         0.25000000
Sr          0.25000000         0.08333333         0.41666667
Sr          0.25000000         0.08333333         0.58333333
Sr          0.25000000         0.08333333         0.75000000
Sr          0.25000000         0.08333333         0.91666667
Sr          0.25000000         0.08333333         0.08333333
Sr          0.25000000         0.08333333         0.25000000
Sr          0.25000000         0.25000000         0.41666667
Sr          0.25000000         0.25000000         0.58333333
Sr          0.25000000         0.25000000         0.75000000
Sr          0.25000000         0.25000000         0.91666667
Sr          0.25000000         0.25000000         0.08333333
Sr          0.25000000         0.25000000         0.25000000
O          0.41666667         0.33333333         0.33333333
O          0.41666667         0.33333333         0.50000000
O          0.41666667         0.33333333         0.66666667
O          0.41666667         0.33333333         0.83333333
O          0.41666667         0.33333333         0.00000000
O          0.41666667         0.33333333         0.16666667
O          0.41666667         0.50000000         0.33333333
O          0.41666667         0.50000000         0.50000000
O          0.41666667         0.50000000         0.66666667
O          0.41666667         0.50000000         0.83333333
O          0.41666667         0.50000000         0.00000000
O          0.41666667         0.50000000         0.16666667
O          0.41666667         0.66666667         0.33333333
O          0.41666667         0.66666667         0.50000000
O          0.41666667         0.66666667         0.66666667
O          0.41666667         0.66666667         0.83333333
O          0.41666667         0.66666667         0.00000000
O          0.41666667         0.66666667         0.16666667
O          0.41666667         0.83333333         0.33333333
O          0.41666667         0.83333333         0.50000000
O          0.41666667         0.83333333         0.66666667
O          0.41666667         0.83333333         0.83333333
O          0.41666667         0.83333333         0.00000000
O          0.41666667         0.83333333         0.16666667
O          0.41666667         0.00000000         0.33333333
O          0.41666667         0.00000000         0.50000000
O          0.41666667         0.00000000         0.66666667
O          0.41666667         0.00000000         0.83333333
O          0.41666667         0.00000000         0.00000000
O          0.41666667         0.00000000         0.16666667
O          0.41666667         0.16666667         0.33333333
O          0.41666667         0.16666667         0.50000000
O          0.41666667         0.16666667         0.66666667
O          0.41666667         0.16666667         0.83333333
O          0.41666667         0.16666667         0.00000000
O          0.41666667         0.16666667         0.16666667
O          0.58333333         0.33333333         0.33333333
O          0.58333333         0.33333333         0.50000000
O          0.58333333         0.33333333         0.66666667
O          0.58333333         0.33333333         0.83333333
O          0.58333333         0.33333333         0.00000000
O          0.58333333         0.33333333         0.16666667
O          0.58333333         0.50000000         0.33333333
O          0.58333333         0.50000000         0.50000000
O          0.58333333         0.50000000         0.66666667
O          0.58333333         0.50000000         0.83333333
O          0.58333333         0.50000000         0.00000000
O          0.58333333         0.50000000         0.16666667
O          0.58333333         0.66666667         0.33333333
O          0.58333333         0.66666667         0.50000000
O          0.58333333         0.66666667         0.66666667
O          0.58333333         0.66666667         0.83333333
O          0.58333333         0.66666667         0.00000000
O          0.58333333         0.66666667         0.16666667
O          0.58333333         0.83333333         0.33333333
O          0.58333333         0.83333333         0.50000000
O          0.58333333         0.83333333         0.66666667
O          0.58333333         0.83333333         0.83333333
O          0.58333333         0.83333333         0.00000000
O          0.58333333         0.83333333         0.16666667
O          0.58333333         0.00000000         0.33333333
O          0.58333333         0.00000000         0.50000000
O          0.58333333         0.00000000         0.66666667
O          0.58333333         0.00000000         0.83333333
O          0.58333333         0.00000000         0.00000000
O          0.58333333         0.00000000         0.16666667
O          0.58333333         0.16666667         0.33333333
O          0.58333333         0.16666667         0.50000000
O          0.58333333         0.16666667         0.66666667
O          0.58333333         0.16666667         0.83333333
O          0.58333333         0.16666667         0.00000000
O          0.58333333         0.16666667         0.16666667
O          0.75000000         0.33333333         0.33333333
O          0.75000000         0.33333333         0.50000000
O          0.75000000         0.33333333         0.66666667
O          0.75000000         0.33333333         0.83333333
O          0.75000000         0.33333333         0.00000000
O          0.75000000         0.33333333         0.16666667
O          0.75000000         0.50000000         0.33333333
O          0.75000000         0.50000000         0.50000000
O          0.75000000         0.50000000         0.66666667
O          0.75000000         0.50000000         0.83333333
O          0.75000000         0.50000000         0.00000000
O          0.75000000         0.50000000         0.16666667
O          0.75000000         0.66666667         0.33333333
O          0.75000000         0.66666667         0.50000000
O          0.75000000         0.66666667         0.66666667
O          0.75000000         0.66666667         0.83333333
O          0.75000000         0.66666667         0.00000000
O          0.75000000         0.66666667         0.16666667
O          0.75000000         0.83333333         0.33333333
O          0.75000000         0.83333333         0.50000000
O          0.75000000         0.83333333         0.66666667
O          0.75000000         0.83333333         0.83333333
O          0.75000000         0.83333333         0.00000000
O          0.75000000         0.83333333         0.16666667
O          0.75000000         0.00000000         0.33333333
O          0.75000000         0.00000000         0.50000000
O          0.75000000         0.00000000         0.66666667
O          0.75000000         0.00000000         0.83333333
O          0.75000000         0.00000000         0.00000000
O          0.75000000         0.00000000         0.16666667
O          0.75000000         0.16666667         0.33333333
O          0.75000000         0.16666667         0.50000000
O          0.75000000         0.16666667         0.66666667
O          0.75000000         0.16666667         0.83333333
O          0.75000000         0.16666667         0.00000000
O          0.75000000         0.16666667         0.16666667
O          0.91666667         0.33333333         0.33333333
O          0.91666667         0.33333333         0.50000000
O          0.91666667         0.33333333         0.66666667
O          0.91666667         0.33333333         0.83333333
O          0.91666667         0.33333333         0.00000000
O          0.91666667         0.33333333         0.16666667
O          0.91666667         0.50000000         0.33333333
O          0.91666667         0.50000000         0.50000000
O          0.91666667         0.50000000         0.66666667
O          0.91666667         0.50000000         0.83333333
O          0.91666667         0.50000000         0.00000000
O          0.91666667         0.50000000         0.16666667
O          0.91666667         0.66666667         0.33333333
O          0.91666667         0.66666667         0.50000000
O          0.91666667         0.66666667         0.66666667
O          0.91666667         0.66666667         0.83333333
O          0.91666667         0.66666667         0.00000000
O          0.91666667         0.66666667         0.16666667
O          0.91666667         0.83333333         0.33333333
O          0.91666667         0.83333333         0.50000000
O          0.91666667         0.83333333         0.66666667
O          0.91666667         0.83333333         0.83333333
O          0.91666667         0.83333333         0.00000000
O          0.91666667         0.83333333         0.16666667
O          0.91666667         0.00000000         0.33333333
O          0.91666667         0.00000000         0.50000000
O          0.91666667         0.00000000         0.66666667
O          0.91666667         0.00000000         0.83333333
O          0.91666667         0.00000000         0.00000000
O          0.91666667         0.00000000         0.16666667
O          0.91666667         0.16666667         0.33333333
O          0.91666667         0.16666667         0.50000000
O          0.91666667         0.16666667         0.66666667
O          0.91666667         0.16666667         0.83333333
O          0.91666667         0.16666667         0.00000000
O          0.91666667         0.16666667         0.16666667
O          0.08333333         0.33333333         0.33333333
O          0.08333333         0.33333333         0.50000000
O          0.08333333         0.33333333         0.66666667
O          0.08333333         0.33333333         0.83333333
O          0.08333333         0.33333333         0.00000000
O          0.08333333         0.33333333         0.16666667
O          0.08333333         0.50000000         0.33333333
O          0.08333333         0.50000000         0.50000000
O          0.08333333         0.50000000         0.66666667
O          0.08333333         0.50000000         0.83333333
O          0.08333333         0.50000000         0.00000000
O          0.08333333         0.50000000         0.16666667
O          0.08333333         0.66666667         0.33333333
O          0.08333333         0.66666667         0.50000000
O          0.08333333         0.66666667         0.66666667
O          0.08333333         0.66666667         0.83333333
O          0.08333333         0.66666667         0.00000000
O          0.08333333         0.66666667         0.16666667
O          0.08333333         0.83333333         0.33333333
O          0.08333333         0.83333333         0.50000000
O          0.08333333         0.83333333         0.66666667
O          0.08333333         0.83333333         0.83333333
O          0.08333333         0.83333333         0.00000000
O          0.08333333         0.83333333         0.16666667
O          0.08333333         0.00000000         0.33333333
O          0.08333333         0.00000000         0.50000000
O          0.08333333         0.00000000         0.66666667
O          0.08333333         0.00000000         0.83333333
O          0.08333333         0.00000000         0.00000000
O          0.08333333         0.00000000         0.16666667
O          0.08333333         0.16666667         0.33333333
O          0.08333333         0.16666667         0.50000000
O          0.08333333         0.16666667         0.66666667
O          0.08333333         0.16666667         0.83333333
O          0.08333333         0.16666667         0.00000000
O          0.08333333         0.16666667         0.16666667
O          0.25000000         0.33333333         0.33333333
O          0.25000000         0.33333333         0.50000000
O          0.25000000         0.33333333         0.66666667
O          0.25000000         0.33333333         0.83333333
O          0.25000000         0.33333333         0.00000000
O          0.25000000         0.33333333         0.16666667
O          0.25000000         0.50000000         0.33333333
O          0.25000000         0.50000000         0.50000000
O          0.25000000         0.50000000         0.66666667
O          0.25000000         0.50000000         0.83333333
O          0.25000000         0.50000000         0.00000000
O          0.25000000         0.50000000         0.16666667
O          0.25000000         0.66666667         0.33333333
O          0.25000000         0.66666667         0.50000000
O          0.25000000         0.66666667         0.66666667
O          0.25000000         0.66666667         0.83333333
O          0.25000000         0.66666667         0.00000000
O          0.25000000         0.66666667         0.16666667
O          0.25000000         0.83333333         0.33333333
O          0.25000000         0.83333333         0.50000000
O          0.25000000         0.83333333         0.66666667
O          0.25000000         0.83333333         0.83333333
O          0.25000000         0.83333333         0.00000000
O          0.25000000         0.83333333         0.16666667
O          0.25000000         0.00000000         0.33333333
O          0.25000000         0.00000000         0.50000000
O          0.25000000         0.00000000         0.66666667
O          0.25000000         0.00000000         0.83333333
O          0.25000000         0.00000000         0.00000000
O          0.25000000         0.00000000         0.16666667
O          0.25000000         0.16666667         0.33333333
O          0.25000000         0.16666667         0.50000000
O          0.25000000         0.16666667         0.66666667
O          0.25000000         0.16666667         0.83333333
O          0.25000000         0.16666667         0.00000000
O          0.25000000         0.16666667         0.16666667
O          0.33333333         0.41666667         0.33333333
O          0.33333333         0.41666667         0.50000000
O          0.33333333         0.41666667         0.66666667
O          0.33333333         0.41666667         0.83333333
O          0.33333333         0.41666667         0.00000000
O          0.33333333         0.41666667         0.16666667
O          0.33333333         0.58333333         0.33333333
O          0.33333333         0.58333333         0.50000000
O          0.33333333         0.58333333         0.66666667
O          0.33333333         0.58333333         0.83333333
O          0.33333333         0.58333333         0.00000000
O          0.33333333         0.58333333         0.16666667
O          0.33333333         0.75000000         0.33333333
O          0.33333333         0.75000000         0.50000000
O          0.33333333         0.75000000         0.66666667
O          0.33333333         0.75000000         0.83333333
O          0.33333333         0.75000000         0.00000000
O          0.33333333         0.75000000         0.16666667
O          0.33333333         0.91666667         0.33333333
O          0.33333333         0.91666667         0.50000000
O          0.33333333         0.91666667         0.66666667
O          0.33333333         0.91666667         0.83333333
O          0.33333333         0.91666667         0.00000000
O          0.33333333         0.91666667         0.16666667
O          0.33333333         0.08333333         0.33333333
O          0.33333333         0.08333333         0.50000000
O          0.33333333         0.08333333         0.66666667
O          0.33333333         0.08333333         0.83333333
O          0.33333333         0.08333333         0.00000000
O          0.33333333         0.08333333         0.16666667
O          0.33333333         0.25000000         0.33333333
O          0.33333333         0.25000000         0.50000000
O          0.33333333         0.25000000         0.66666667
O          0.33333333         0.25000000         0.83333333
O          0.33333333         0.25000000         0.00000000
O          0.33333333         0.25000000         0.16666667
O          0.50000000         0.41666667         0.33333333
O          0.50000000         0.41666667         0.50000000
O          0.50000000         0.41666667         0.66666667
O          0.50000000         0.41666667         0.83333333
O          0.50000000         0.41666667         0.00000000
O          0.50000000         0.41666667         0.16666667
O          0.50000000         0.58333333         0.33333333
O          0.50000000         0.58333333         0.50000000
O          0.50000000         0.58333333         0.66666667
O          0.50000000         0.58333333         0.83333333
O          0.50000000         0.58333333         0.00000000
O          0.50000000         0.58333333         0.16666667
O          0.50000000         0.75000000         0.33333333
O          0.50000000         0.75000000         0.50000000